elem(1, 12).
elem(2, 7).
elem(3, 1).
elem(4, 13).
elem(5, 3).
elem(6, 4).
elem(7, 3).
elem(8, 7).
elem(9, 10).
elem(10, 13).
elem(11, 4).
elem(12, 3).
elem(13, 6).
elem(14, 1).
elem(15, 13).
elem(16, 9).
elem(17, 6).
elem(18, 5).
elem(19, 8).
elem(20, 5).
elem(21, 7).
elem(22, 4).
elem(23, 5).
elem(24, 11).
elem(25, 15).
elem(26, 2).
elem(27, 3).
elem(28, 11).
elem(29, 4).
elem(30, 5).
elem(31, 11).
elem(32, 7).
elem(33, 2).
elem(34, 11).
elem(35, 2).
elem(36, 7).
elem(37, 16).
elem(38, 2).
elem(39, 2).
elem(40, 7).
elem(41, 2).
elem(42, 11).
elem(43, 18).
elem(44, 1).
elem(45, 1).
elem(46, 17).
elem(47, 2).
elem(48, 1).
elem(49, 4).
elem(50, 2).
elem(51, 14).
elem(52, 10).
elem(53, 9).
elem(54, 1).
elem(55, 5).
elem(56, 9).
elem(57, 6).
