elem(1, 13).
elem(2, 5).
elem(3, 2).
elem(4, 10).
elem(5, 8).
elem(6, 2).
elem(7, 15).
elem(8, 3).
elem(9, 2).
elem(10, 12).
elem(11, 4).
elem(12, 4).
elem(13, 6).
elem(14, 5).
elem(15, 9).
elem(16, 14).
elem(17, 4).
elem(18, 2).
elem(19, 13).
elem(20, 2).
elem(21, 5).
elem(22, 18).
elem(23, 1).
elem(24, 1).
elem(25, 11).
elem(26, 2).
elem(27, 7).
elem(28, 18).
elem(29, 1).
elem(30, 1).
elem(31, 1).
elem(32, 7).
elem(33, 12).
elem(34, 6).
elem(35, 7).
elem(36, 7).
elem(37, 11).
elem(38, 3).
elem(39, 6).
elem(40, 10).
elem(41, 7).
elem(42, 3).
elem(43, 2).
elem(44, 12).
elem(45, 6).
elem(46, 9).
elem(47, 9).
elem(48, 2).
elem(49, 17).
elem(50, 1).
elem(51, 2).
elem(52, 16).
elem(53, 3).
elem(54, 1).
