elem(1, 13).
elem(2, 4).
elem(3, 3).
elem(4, 4).
elem(5, 8).
elem(6, 8).
elem(7, 14).
elem(8, 5).
elem(9, 1).
elem(10, 11).
elem(11, 1).
elem(12, 8).
elem(13, 4).
elem(14, 10).
elem(15, 6).
elem(16, 1).
elem(17, 6).
elem(18, 13).
elem(19, 2).
elem(20, 7).
elem(21, 11).
elem(22, 6).
elem(23, 5).
elem(24, 9).
elem(25, 14).
elem(26, 3).
elem(27, 3).
elem(28, 13).
elem(29, 6).
elem(30, 1).
elem(31, 15).
elem(32, 4).
elem(33, 1).
elem(34, 4).
elem(35, 15).
elem(36, 1).
elem(37, 1).
elem(38, 8).
elem(39, 11).
elem(40, 5).
elem(41, 6).
elem(42, 9).
elem(43, 8).
elem(44, 9).
elem(45, 3).
elem(46, 16).
elem(47, 1).
elem(48, 3).
elem(49, 15).
elem(50, 3).
elem(51, 2).
