elem(1, 16).
elem(2, 2).
elem(3, 2).
elem(4, 3).
elem(5, 8).
elem(6, 9).
elem(7, 15).
elem(8, 4).
elem(9, 1).
elem(10, 2).
elem(11, 7).
elem(12, 11).
elem(13, 5).
elem(14, 11).
elem(15, 4).
elem(16, 6).
elem(17, 5).
elem(18, 9).
elem(19, 8).
elem(20, 7).
elem(21, 5).
elem(22, 14).
elem(23, 5).
elem(24, 1).
elem(25, 16).
elem(26, 1).
elem(27, 3).
elem(28, 14).
elem(29, 3).
elem(30, 3).
elem(31, 13).
elem(32, 5).
elem(33, 2).
elem(34, 17).
elem(35, 2).
elem(36, 1).
elem(37, 13).
elem(38, 3).
elem(39, 4).
elem(40, 9).
elem(41, 9).
elem(42, 2).
elem(43, 4).
elem(44, 9).
elem(45, 7).
elem(46, 12).
elem(47, 7).
elem(48, 1).
elem(49, 3).
elem(50, 14).
elem(51, 3).
