elem(1, 3).
elem(2, 13).
elem(3, 4).
elem(4, 2).
elem(5, 2).
elem(6, 16).
elem(7, 18).
elem(8, 1).
elem(9, 1).
elem(10, 18).
elem(11, 1).
elem(12, 1).
elem(13, 15).
elem(14, 1).
elem(15, 4).
elem(16, 14).
elem(17, 4).
elem(18, 2).
elem(19, 10).
elem(20, 7).
elem(21, 3).
elem(22, 1).
elem(23, 18).
elem(24, 1).
elem(25, 9).
elem(26, 5).
elem(27, 6).
elem(28, 1).
elem(29, 3).
elem(30, 16).
elem(31, 11).
elem(32, 5).
elem(33, 4).
elem(34, 4).
elem(35, 5).
elem(36, 11).
elem(37, 12).
elem(38, 5).
elem(39, 3).
elem(40, 15).
elem(41, 4).
elem(42, 1).
elem(43, 16).
elem(44, 1).
elem(45, 3).
