elem(1, 18).
elem(2, 1).
elem(3, 1).
elem(4, 7).
elem(5, 2).
elem(6, 11).
elem(7, 13).
elem(8, 6).
elem(9, 1).
elem(10, 7).
elem(11, 5).
elem(12, 8).
elem(13, 11).
elem(14, 7).
elem(15, 2).
elem(16, 17).
elem(17, 2).
elem(18, 1).
elem(19, 2).
elem(20, 14).
elem(21, 4).
elem(22, 4).
elem(23, 15).
elem(24, 1).
elem(25, 11).
elem(26, 1).
elem(27, 8).
elem(28, 16).
elem(29, 3).
elem(30, 1).
elem(31, 16).
elem(32, 2).
elem(33, 2).
elem(34, 17).
elem(35, 1).
elem(36, 2).
elem(37, 17).
elem(38, 2).
elem(39, 1).
elem(40, 4).
elem(41, 9).
elem(42, 7).
elem(43, 7).
elem(44, 3).
elem(45, 10).
