elem(1, 13).
elem(2, 3).
elem(3, 4).
elem(4, 1).
elem(5, 2).
elem(6, 17).
elem(7, 15).
elem(8, 3).
elem(9, 2).
elem(10, 16).
elem(11, 3).
elem(12, 1).
elem(13, 18).
elem(14, 1).
elem(15, 1).
elem(16, 4).
elem(17, 9).
elem(18, 7).
elem(19, 13).
elem(20, 2).
elem(21, 5).
elem(22, 18).
elem(23, 1).
elem(24, 1).
elem(25, 8).
elem(26, 1).
elem(27, 11).
elem(28, 5).
elem(29, 5).
elem(30, 10).
elem(31, 13).
elem(32, 2).
elem(33, 5).
elem(34, 7).
elem(35, 1).
elem(36, 12).
elem(37, 3).
elem(38, 7).
elem(39, 10).
elem(40, 16).
elem(41, 3).
elem(42, 1).
elem(43, 8).
elem(44, 3).
elem(45, 9).
elem(46, 10).
elem(47, 8).
elem(48, 2).
elem(49, 2).
elem(50, 11).
elem(51, 7).
elem(52, 9).
elem(53, 9).
elem(54, 2).
elem(55, 10).
elem(56, 5).
elem(57, 5).
