elem(1, 11).
elem(2, 6).
elem(3, 3).
elem(4, 13).
elem(5, 2).
elem(6, 5).
elem(7, 2).
elem(8, 1).
elem(9, 17).
elem(10, 8).
elem(11, 4).
elem(12, 8).
elem(13, 8).
elem(14, 9).
elem(15, 3).
elem(16, 17).
elem(17, 1).
elem(18, 2).
elem(19, 8).
elem(20, 7).
elem(21, 5).
elem(22, 13).
elem(23, 6).
elem(24, 1).
elem(25, 15).
elem(26, 1).
elem(27, 4).
elem(28, 6).
elem(29, 5).
elem(30, 9).
elem(31, 4).
elem(32, 11).
elem(33, 5).
elem(34, 3).
elem(35, 4).
elem(36, 13).
elem(37, 4).
elem(38, 13).
elem(39, 3).
elem(40, 10).
elem(41, 2).
elem(42, 8).
