elem(1, 7).
elem(2, 1).
elem(3, 12).
elem(4, 11).
elem(5, 5).
elem(6, 4).
elem(7, 16).
elem(8, 1).
elem(9, 3).
elem(10, 18).
elem(11, 1).
elem(12, 1).
elem(13, 6).
elem(14, 13).
elem(15, 1).
elem(16, 17).
elem(17, 2).
elem(18, 1).
elem(19, 8).
elem(20, 8).
elem(21, 4).
elem(22, 7).
elem(23, 7).
elem(24, 6).
elem(25, 11).
elem(26, 4).
elem(27, 5).
elem(28, 1).
elem(29, 7).
elem(30, 12).
elem(31, 4).
elem(32, 10).
elem(33, 6).
elem(34, 8).
elem(35, 6).
elem(36, 6).
elem(37, 7).
elem(38, 2).
elem(39, 11).
elem(40, 14).
elem(41, 1).
elem(42, 5).
