elem(1, 7).
elem(2, 10).
elem(3, 3).
elem(4, 12).
elem(5, 3).
elem(6, 5).
elem(7, 5).
elem(8, 8).
elem(9, 7).
elem(10, 18).
elem(11, 1).
elem(12, 1).
elem(13, 8).
elem(14, 6).
elem(15, 6).
elem(16, 8).
elem(17, 7).
elem(18, 5).
elem(19, 6).
elem(20, 2).
elem(21, 12).
elem(22, 10).
elem(23, 6).
elem(24, 4).
elem(25, 14).
elem(26, 1).
elem(27, 5).
elem(28, 16).
elem(29, 2).
elem(30, 2).
elem(31, 11).
elem(32, 3).
elem(33, 6).
elem(34, 15).
elem(35, 3).
elem(36, 2).
elem(37, 1).
elem(38, 12).
elem(39, 7).
elem(40, 4).
elem(41, 8).
elem(42, 8).
elem(43, 15).
elem(44, 2).
elem(45, 3).
elem(46, 15).
elem(47, 3).
elem(48, 2).
elem(49, 18).
elem(50, 1).
elem(51, 1).
elem(52, 2).
elem(53, 3).
elem(54, 15).
elem(55, 6).
elem(56, 7).
elem(57, 7).
