elem(1, 8).
elem(2, 5).
elem(3, 7).
elem(4, 5).
elem(5, 14).
elem(6, 1).
elem(7, 12).
elem(8, 5).
elem(9, 3).
elem(10, 2).
elem(11, 6).
elem(12, 12).
elem(13, 5).
elem(14, 6).
elem(15, 9).
elem(16, 3).
elem(17, 12).
elem(18, 5).
elem(19, 11).
elem(20, 4).
elem(21, 5).
elem(22, 11).
elem(23, 8).
elem(24, 1).
elem(25, 9).
elem(26, 4).
elem(27, 7).
elem(28, 5).
elem(29, 7).
elem(30, 8).
elem(31, 14).
elem(32, 1).
elem(33, 5).
elem(34, 7).
elem(35, 5).
elem(36, 8).
elem(37, 17).
elem(38, 2).
elem(39, 1).
elem(40, 18).
elem(41, 1).
elem(42, 1).
elem(43, 3).
elem(44, 7).
elem(45, 10).
elem(46, 7).
elem(47, 1).
elem(48, 12).
elem(49, 17).
elem(50, 2).
elem(51, 1).
