elem(1, 7).
elem(2, 11).
elem(3, 2).
elem(4, 4).
elem(5, 14).
elem(6, 2).
elem(7, 8).
elem(8, 4).
elem(9, 8).
elem(10, 11).
elem(11, 6).
elem(12, 3).
elem(13, 15).
elem(14, 1).
elem(15, 4).
elem(16, 6).
elem(17, 6).
elem(18, 8).
elem(19, 17).
elem(20, 2).
elem(21, 1).
elem(22, 13).
elem(23, 5).
elem(24, 2).
elem(25, 2).
elem(26, 17).
elem(27, 1).
elem(28, 9).
elem(29, 8).
elem(30, 3).
elem(31, 10).
elem(32, 5).
elem(33, 5).
elem(34, 10).
elem(35, 7).
elem(36, 3).
elem(37, 13).
elem(38, 4).
elem(39, 3).
elem(40, 16).
elem(41, 3).
elem(42, 1).
