elem(1, 7).
elem(2, 2).
elem(3, 11).
elem(4, 13).
elem(5, 6).
elem(6, 1).
elem(7, 5).
elem(8, 8).
elem(9, 7).
elem(10, 5).
elem(11, 12).
elem(12, 3).
elem(13, 2).
elem(14, 10).
elem(15, 8).
elem(16, 7).
elem(17, 6).
elem(18, 7).
elem(19, 18).
elem(20, 1).
elem(21, 1).
elem(22, 7).
elem(23, 11).
elem(24, 2).
elem(25, 10).
elem(26, 2).
elem(27, 8).
elem(28, 10).
elem(29, 3).
elem(30, 7).
elem(31, 6).
elem(32, 2).
elem(33, 12).
elem(34, 2).
elem(35, 8).
elem(36, 10).
elem(37, 7).
elem(38, 7).
elem(39, 6).
elem(40, 12).
elem(41, 4).
elem(42, 4).
elem(43, 9).
elem(44, 6).
elem(45, 5).
elem(46, 15).
elem(47, 1).
elem(48, 4).
elem(49, 16).
elem(50, 1).
elem(51, 3).
elem(52, 7).
elem(53, 9).
elem(54, 4).
elem(55, 16).
elem(56, 3).
elem(57, 1).
