elem(1, 4).
elem(2, 10).
elem(3, 6).
elem(4, 13).
elem(5, 3).
elem(6, 4).
elem(7, 3).
elem(8, 9).
elem(9, 8).
elem(10, 5).
elem(11, 8).
elem(12, 7).
elem(13, 17).
elem(14, 2).
elem(15, 1).
elem(16, 7).
elem(17, 10).
elem(18, 3).
elem(19, 6).
elem(20, 5).
elem(21, 9).
elem(22, 13).
elem(23, 2).
elem(24, 5).
elem(25, 17).
elem(26, 1).
elem(27, 2).
elem(28, 9).
elem(29, 10).
elem(30, 1).
elem(31, 17).
elem(32, 1).
elem(33, 2).
elem(34, 2).
elem(35, 11).
elem(36, 7).
elem(37, 12).
elem(38, 2).
elem(39, 6).
elem(40, 10).
elem(41, 2).
elem(42, 8).
elem(43, 15).
elem(44, 3).
elem(45, 2).
elem(46, 9).
elem(47, 1).
elem(48, 10).
elem(49, 15).
elem(50, 1).
elem(51, 4).
