elem(1, 14).
elem(2, 3).
elem(3, 3).
elem(4, 9).
elem(5, 5).
elem(6, 6).
elem(7, 4).
elem(8, 15).
elem(9, 1).
elem(10, 17).
elem(11, 1).
elem(12, 2).
elem(13, 4).
elem(14, 3).
elem(15, 13).
elem(16, 14).
elem(17, 3).
elem(18, 3).
elem(19, 2).
elem(20, 10).
elem(21, 8).
elem(22, 3).
elem(23, 15).
elem(24, 2).
elem(25, 17).
elem(26, 2).
elem(27, 1).
elem(28, 14).
elem(29, 3).
elem(30, 3).
elem(31, 6).
elem(32, 6).
elem(33, 8).
elem(34, 5).
elem(35, 9).
elem(36, 6).
elem(37, 1).
elem(38, 2).
elem(39, 17).
elem(40, 10).
elem(41, 1).
elem(42, 9).
elem(43, 16).
elem(44, 3).
elem(45, 1).
elem(46, 4).
elem(47, 12).
elem(48, 4).
elem(49, 13).
elem(50, 6).
elem(51, 1).
