elem(1, 3).
elem(2, 7).
elem(3, 10).
elem(4, 13).
elem(5, 6).
elem(6, 1).
elem(7, 5).
elem(8, 12).
elem(9, 3).
elem(10, 4).
elem(11, 5).
elem(12, 11).
elem(13, 14).
elem(14, 1).
elem(15, 5).
elem(16, 2).
elem(17, 7).
elem(18, 11).
elem(19, 10).
elem(20, 2).
elem(21, 8).
elem(22, 11).
elem(23, 2).
elem(24, 7).
elem(25, 6).
elem(26, 12).
elem(27, 2).
elem(28, 12).
elem(29, 5).
elem(30, 3).
elem(31, 7).
elem(32, 11).
elem(33, 2).
elem(34, 18).
elem(35, 1).
elem(36, 1).
elem(37, 3).
elem(38, 13).
elem(39, 4).
elem(40, 17).
elem(41, 1).
elem(42, 2).
elem(43, 18).
elem(44, 1).
elem(45, 1).
elem(46, 10).
elem(47, 5).
elem(48, 5).
elem(49, 4).
elem(50, 3).
elem(51, 13).
