elem(1, 15).
elem(2, 1).
elem(3, 4).
elem(4, 10).
elem(5, 7).
elem(6, 3).
elem(7, 2).
elem(8, 7).
elem(9, 11).
elem(10, 8).
elem(11, 2).
elem(12, 10).
elem(13, 18).
elem(14, 1).
elem(15, 1).
elem(16, 13).
elem(17, 4).
elem(18, 3).
elem(19, 6).
elem(20, 12).
elem(21, 2).
elem(22, 7).
elem(23, 9).
elem(24, 4).
elem(25, 17).
elem(26, 1).
elem(27, 2).
elem(28, 15).
elem(29, 4).
elem(30, 1).
elem(31, 8).
elem(32, 2).
elem(33, 10).
elem(34, 15).
elem(35, 2).
elem(36, 3).
elem(37, 5).
elem(38, 5).
elem(39, 10).
elem(40, 1).
elem(41, 18).
elem(42, 1).
elem(43, 15).
elem(44, 3).
elem(45, 2).
elem(46, 9).
elem(47, 7).
elem(48, 4).
elem(49, 10).
elem(50, 4).
elem(51, 6).
