elem(1, 18).
elem(2, 1).
elem(3, 1).
elem(4, 14).
elem(5, 5).
elem(6, 1).
elem(7, 10).
elem(8, 9).
elem(9, 1).
elem(10, 4).
elem(11, 13).
elem(12, 3).
elem(13, 9).
elem(14, 1).
elem(15, 10).
elem(16, 17).
elem(17, 2).
elem(18, 1).
elem(19, 5).
elem(20, 3).
elem(21, 12).
elem(22, 6).
elem(23, 8).
elem(24, 6).
elem(25, 14).
elem(26, 2).
elem(27, 4).
elem(28, 17).
elem(29, 1).
elem(30, 2).
elem(31, 13).
elem(32, 6).
elem(33, 1).
elem(34, 13).
elem(35, 2).
elem(36, 5).
elem(37, 1).
elem(38, 2).
elem(39, 17).
elem(40, 3).
elem(41, 3).
elem(42, 14).
elem(43, 15).
elem(44, 4).
elem(45, 1).
elem(46, 13).
elem(47, 1).
elem(48, 6).
