elem(1, 5).
elem(2, 5).
elem(3, 10).
elem(4, 17).
elem(5, 1).
elem(6, 2).
elem(7, 18).
elem(8, 1).
elem(9, 1).
elem(10, 7).
elem(11, 11).
elem(12, 2).
elem(13, 1).
elem(14, 17).
elem(15, 2).
elem(16, 12).
elem(17, 3).
elem(18, 5).
elem(19, 14).
elem(20, 5).
elem(21, 1).
elem(22, 11).
elem(23, 4).
elem(24, 5).
elem(25, 15).
elem(26, 4).
elem(27, 1).
elem(28, 11).
elem(29, 6).
elem(30, 3).
elem(31, 1).
elem(32, 8).
elem(33, 11).
elem(34, 15).
elem(35, 2).
elem(36, 3).
elem(37, 10).
elem(38, 7).
elem(39, 3).
elem(40, 2).
elem(41, 17).
elem(42, 1).
