elem(1, 1).
elem(2, 17).
elem(3, 2).
elem(4, 15).
elem(5, 2).
elem(6, 3).
elem(7, 6).
elem(8, 10).
elem(9, 4).
elem(10, 7).
elem(11, 4).
elem(12, 9).
elem(13, 16).
elem(14, 1).
elem(15, 3).
elem(16, 8).
elem(17, 1).
elem(18, 11).
elem(19, 2).
elem(20, 14).
elem(21, 4).
elem(22, 12).
elem(23, 1).
elem(24, 7).
elem(25, 4).
elem(26, 10).
elem(27, 6).
elem(28, 12).
elem(29, 6).
elem(30, 2).
elem(31, 5).
elem(32, 7).
elem(33, 8).
elem(34, 10).
elem(35, 1).
elem(36, 9).
elem(37, 1).
elem(38, 10).
elem(39, 9).
elem(40, 5).
elem(41, 4).
elem(42, 11).
elem(43, 13).
elem(44, 3).
elem(45, 4).
elem(46, 11).
elem(47, 1).
elem(48, 8).
elem(49, 17).
elem(50, 1).
elem(51, 2).
