elem(1, 3).
elem(2, 2).
elem(3, 15).
elem(4, 18).
elem(5, 1).
elem(6, 1).
elem(7, 11).
elem(8, 8).
elem(9, 1).
elem(10, 3).
elem(11, 1).
elem(12, 16).
elem(13, 7).
elem(14, 8).
elem(15, 5).
elem(16, 8).
elem(17, 1).
elem(18, 11).
elem(19, 6).
elem(20, 12).
elem(21, 2).
elem(22, 16).
elem(23, 2).
elem(24, 2).
elem(25, 18).
elem(26, 1).
elem(27, 1).
elem(28, 3).
elem(29, 6).
elem(30, 11).
elem(31, 1).
elem(32, 16).
elem(33, 3).
elem(34, 12).
elem(35, 2).
elem(36, 6).
elem(37, 16).
elem(38, 3).
elem(39, 1).
elem(40, 5).
elem(41, 10).
elem(42, 5).
elem(43, 9).
elem(44, 7).
elem(45, 4).
elem(46, 7).
elem(47, 9).
elem(48, 4).
elem(49, 5).
elem(50, 11).
elem(51, 4).
elem(52, 16).
elem(53, 2).
elem(54, 2).
