elem(1, 17).
elem(2, 2).
elem(3, 1).
elem(4, 3).
elem(5, 6).
elem(6, 11).
elem(7, 8).
elem(8, 2).
elem(9, 10).
elem(10, 1).
elem(11, 18).
elem(12, 1).
elem(13, 11).
elem(14, 2).
elem(15, 7).
elem(16, 5).
elem(17, 11).
elem(18, 4).
elem(19, 11).
elem(20, 8).
elem(21, 1).
elem(22, 16).
elem(23, 3).
elem(24, 1).
elem(25, 13).
elem(26, 1).
elem(27, 6).
elem(28, 6).
elem(29, 2).
elem(30, 12).
elem(31, 14).
elem(32, 3).
elem(33, 3).
elem(34, 18).
elem(35, 1).
elem(36, 1).
elem(37, 1).
elem(38, 15).
elem(39, 4).
elem(40, 8).
elem(41, 10).
elem(42, 2).
elem(43, 6).
elem(44, 9).
elem(45, 5).
elem(46, 8).
elem(47, 6).
elem(48, 6).
elem(49, 10).
elem(50, 9).
elem(51, 1).
elem(52, 5).
elem(53, 2).
elem(54, 13).
elem(55, 6).
elem(56, 8).
elem(57, 6).
