elem(1, 14).
elem(2, 4).
elem(3, 2).
elem(4, 7).
elem(5, 7).
elem(6, 6).
elem(7, 14).
elem(8, 1).
elem(9, 5).
elem(10, 15).
elem(11, 2).
elem(12, 3).
elem(13, 17).
elem(14, 2).
elem(15, 1).
elem(16, 14).
elem(17, 5).
elem(18, 1).
elem(19, 7).
elem(20, 11).
elem(21, 2).
elem(22, 1).
elem(23, 5).
elem(24, 14).
elem(25, 15).
elem(26, 3).
elem(27, 2).
elem(28, 5).
elem(29, 14).
elem(30, 1).
elem(31, 2).
elem(32, 10).
elem(33, 8).
elem(34, 5).
elem(35, 5).
elem(36, 10).
elem(37, 9).
elem(38, 2).
elem(39, 9).
