elem(1, 8).
elem(2, 10).
elem(3, 2).
elem(4, 12).
elem(5, 7).
elem(6, 1).
elem(7, 8).
elem(8, 1).
elem(9, 11).
elem(10, 9).
elem(11, 8).
elem(12, 3).
elem(13, 9).
elem(14, 9).
elem(15, 2).
elem(16, 17).
elem(17, 2).
elem(18, 1).
elem(19, 12).
elem(20, 7).
elem(21, 1).
elem(22, 12).
elem(23, 1).
elem(24, 7).
elem(25, 17).
elem(26, 1).
elem(27, 2).
elem(28, 4).
elem(29, 10).
elem(30, 6).
elem(31, 9).
elem(32, 1).
elem(33, 10).
elem(34, 14).
elem(35, 1).
elem(36, 5).
elem(37, 2).
elem(38, 7).
elem(39, 11).
elem(40, 10).
elem(41, 7).
elem(42, 3).
elem(43, 16).
elem(44, 3).
elem(45, 1).
elem(46, 17).
elem(47, 2).
elem(48, 1).
elem(49, 6).
elem(50, 2).
elem(51, 12).
elem(52, 6).
elem(53, 1).
elem(54, 13).
