elem(1, 2).
elem(2, 6).
elem(3, 12).
elem(4, 8).
elem(5, 3).
elem(6, 9).
elem(7, 1).
elem(8, 9).
elem(9, 10).
elem(10, 16).
elem(11, 3).
elem(12, 1).
elem(13, 8).
elem(14, 11).
elem(15, 1).
elem(16, 17).
elem(17, 1).
elem(18, 2).
elem(19, 4).
elem(20, 6).
elem(21, 10).
elem(22, 16).
elem(23, 3).
elem(24, 1).
elem(25, 4).
elem(26, 6).
elem(27, 10).
elem(28, 2).
elem(29, 1).
elem(30, 17).
elem(31, 11).
elem(32, 2).
elem(33, 7).
elem(34, 14).
elem(35, 4).
elem(36, 2).
elem(37, 6).
elem(38, 13).
elem(39, 1).
elem(40, 10).
elem(41, 6).
elem(42, 4).
elem(43, 5).
elem(44, 12).
elem(45, 3).
elem(46, 11).
elem(47, 7).
elem(48, 2).
