elem(1, 17).
elem(2, 1).
elem(3, 2).
elem(4, 7).
elem(5, 8).
elem(6, 5).
elem(7, 2).
elem(8, 15).
elem(9, 3).
elem(10, 11).
elem(11, 5).
elem(12, 4).
elem(13, 2).
elem(14, 9).
elem(15, 9).
elem(16, 6).
elem(17, 7).
elem(18, 7).
elem(19, 14).
elem(20, 2).
elem(21, 4).
elem(22, 8).
elem(23, 1).
elem(24, 11).
elem(25, 2).
elem(26, 5).
elem(27, 13).
elem(28, 4).
elem(29, 13).
elem(30, 3).
elem(31, 15).
elem(32, 1).
elem(33, 4).
elem(34, 2).
elem(35, 4).
elem(36, 14).
elem(37, 17).
elem(38, 1).
elem(39, 2).
elem(40, 16).
elem(41, 2).
elem(42, 2).
elem(43, 4).
elem(44, 12).
elem(45, 4).
elem(46, 4).
elem(47, 15).
elem(48, 1).
elem(49, 12).
elem(50, 3).
elem(51, 5).
elem(52, 6).
elem(53, 9).
elem(54, 5).
elem(55, 4).
elem(56, 2).
elem(57, 14).
