elem(1, 10).
elem(2, 7).
elem(3, 3).
elem(4, 2).
elem(5, 15).
elem(6, 3).
elem(7, 8).
elem(8, 11).
elem(9, 1).
elem(10, 6).
elem(11, 6).
elem(12, 8).
elem(13, 7).
elem(14, 4).
elem(15, 9).
elem(16, 17).
elem(17, 2).
elem(18, 1).
elem(19, 5).
elem(20, 4).
elem(21, 11).
elem(22, 4).
elem(23, 10).
elem(24, 6).
elem(25, 9).
elem(26, 10).
elem(27, 1).
elem(28, 15).
elem(29, 3).
elem(30, 2).
elem(31, 3).
elem(32, 3).
elem(33, 14).
elem(34, 4).
elem(35, 11).
elem(36, 5).
elem(37, 8).
elem(38, 7).
elem(39, 5).
elem(40, 9).
elem(41, 5).
elem(42, 6).
elem(43, 9).
elem(44, 1).
elem(45, 10).
elem(46, 8).
elem(47, 1).
elem(48, 11).
