elem(1, 1).
elem(2, 2).
elem(3, 17).
elem(4, 13).
elem(5, 1).
elem(6, 6).
elem(7, 3).
elem(8, 10).
elem(9, 7).
elem(10, 10).
elem(11, 6).
elem(12, 4).
elem(13, 2).
elem(14, 12).
elem(15, 6).
elem(16, 4).
elem(17, 3).
elem(18, 13).
elem(19, 11).
elem(20, 1).
elem(21, 8).
elem(22, 3).
elem(23, 16).
elem(24, 1).
elem(25, 12).
elem(26, 4).
elem(27, 4).
elem(28, 14).
elem(29, 1).
elem(30, 5).
elem(31, 8).
elem(32, 10).
elem(33, 2).
elem(34, 3).
elem(35, 10).
elem(36, 7).
elem(37, 17).
elem(38, 1).
elem(39, 2).
elem(40, 9).
elem(41, 8).
elem(42, 3).
elem(43, 6).
elem(44, 7).
elem(45, 7).
elem(46, 13).
elem(47, 2).
elem(48, 5).
elem(49, 11).
elem(50, 1).
elem(51, 8).
elem(52, 14).
elem(53, 5).
elem(54, 1).
elem(55, 16).
elem(56, 3).
elem(57, 1).
