elem(1, 4).
elem(2, 1).
elem(3, 15).
elem(4, 5).
elem(5, 8).
elem(6, 7).
elem(7, 8).
elem(8, 10).
elem(9, 2).
elem(10, 7).
elem(11, 5).
elem(12, 8).
elem(13, 9).
elem(14, 7).
elem(15, 4).
elem(16, 5).
elem(17, 11).
elem(18, 4).
elem(19, 16).
elem(20, 3).
elem(21, 1).
elem(22, 18).
elem(23, 1).
elem(24, 1).
elem(25, 7).
elem(26, 4).
elem(27, 9).
elem(28, 4).
elem(29, 14).
elem(30, 2).
elem(31, 16).
elem(32, 1).
elem(33, 3).
elem(34, 11).
elem(35, 5).
elem(36, 4).
elem(37, 7).
elem(38, 7).
elem(39, 6).
elem(40, 7).
elem(41, 5).
elem(42, 8).
elem(43, 17).
elem(44, 1).
elem(45, 2).
elem(46, 10).
elem(47, 2).
elem(48, 8).
elem(49, 1).
elem(50, 6).
elem(51, 13).
