elem(1, 3).
elem(2, 13).
elem(3, 4).
elem(4, 13).
elem(5, 4).
elem(6, 3).
elem(7, 9).
elem(8, 2).
elem(9, 9).
elem(10, 4).
elem(11, 12).
elem(12, 4).
elem(13, 12).
elem(14, 1).
elem(15, 7).
elem(16, 4).
elem(17, 6).
elem(18, 10).
elem(19, 8).
elem(20, 1).
elem(21, 11).
elem(22, 4).
elem(23, 10).
elem(24, 6).
elem(25, 6).
elem(26, 4).
elem(27, 10).
elem(28, 3).
elem(29, 6).
elem(30, 11).
elem(31, 6).
elem(32, 6).
elem(33, 8).
elem(34, 11).
elem(35, 3).
elem(36, 6).
elem(37, 15).
elem(38, 4).
elem(39, 1).
