elem(1, 1).
elem(2, 13).
elem(3, 6).
elem(4, 7).
elem(5, 10).
elem(6, 3).
elem(7, 12).
elem(8, 3).
elem(9, 5).
elem(10, 13).
elem(11, 4).
elem(12, 3).
elem(13, 4).
elem(14, 13).
elem(15, 3).
elem(16, 11).
elem(17, 6).
elem(18, 3).
elem(19, 9).
elem(20, 10).
elem(21, 1).
elem(22, 14).
elem(23, 5).
elem(24, 1).
elem(25, 16).
elem(26, 3).
elem(27, 1).
elem(28, 5).
elem(29, 9).
elem(30, 6).
elem(31, 17).
elem(32, 2).
elem(33, 1).
elem(34, 16).
elem(35, 3).
elem(36, 1).
elem(37, 17).
elem(38, 2).
elem(39, 1).
elem(40, 10).
elem(41, 1).
elem(42, 9).
elem(43, 5).
elem(44, 11).
elem(45, 4).
elem(46, 13).
elem(47, 3).
elem(48, 4).
