elem(1, 15).
elem(2, 1).
elem(3, 4).
elem(4, 1).
elem(5, 2).
elem(6, 17).
elem(7, 10).
elem(8, 3).
elem(9, 7).
elem(10, 8).
elem(11, 8).
elem(12, 4).
elem(13, 7).
elem(14, 2).
elem(15, 11).
elem(16, 4).
elem(17, 1).
elem(18, 15).
elem(19, 11).
elem(20, 3).
elem(21, 6).
elem(22, 7).
elem(23, 10).
elem(24, 3).
elem(25, 6).
elem(26, 1).
elem(27, 13).
elem(28, 12).
elem(29, 5).
elem(30, 3).
elem(31, 7).
elem(32, 7).
elem(33, 6).
elem(34, 16).
elem(35, 1).
elem(36, 3).
elem(37, 9).
elem(38, 8).
elem(39, 3).
