elem(1, 14).
elem(2, 2).
elem(3, 4).
elem(4, 18).
elem(5, 1).
elem(6, 1).
elem(7, 8).
elem(8, 2).
elem(9, 10).
elem(10, 3).
elem(11, 14).
elem(12, 3).
elem(13, 12).
elem(14, 1).
elem(15, 7).
elem(16, 2).
elem(17, 7).
elem(18, 11).
elem(19, 4).
elem(20, 7).
elem(21, 9).
elem(22, 1).
elem(23, 9).
elem(24, 10).
elem(25, 3).
elem(26, 9).
elem(27, 8).
elem(28, 3).
elem(29, 14).
elem(30, 3).
elem(31, 12).
elem(32, 5).
elem(33, 3).
elem(34, 7).
elem(35, 3).
elem(36, 10).
elem(37, 5).
elem(38, 12).
elem(39, 3).
elem(40, 6).
elem(41, 12).
elem(42, 2).
elem(43, 13).
elem(44, 6).
elem(45, 1).
