elem(1, 3).
elem(2, 8).
elem(3, 9).
elem(4, 7).
elem(5, 10).
elem(6, 3).
elem(7, 9).
elem(8, 8).
elem(9, 3).
elem(10, 5).
elem(11, 6).
elem(12, 9).
elem(13, 6).
elem(14, 10).
elem(15, 4).
elem(16, 10).
elem(17, 5).
elem(18, 5).
elem(19, 15).
elem(20, 1).
elem(21, 4).
elem(22, 2).
elem(23, 17).
elem(24, 1).
elem(25, 2).
elem(26, 11).
elem(27, 7).
elem(28, 18).
elem(29, 1).
elem(30, 1).
elem(31, 11).
elem(32, 7).
elem(33, 2).
elem(34, 3).
elem(35, 2).
elem(36, 15).
elem(37, 2).
elem(38, 15).
elem(39, 3).
elem(40, 6).
elem(41, 5).
elem(42, 9).
elem(43, 16).
elem(44, 2).
elem(45, 2).
elem(46, 12).
elem(47, 3).
elem(48, 5).
elem(49, 17).
elem(50, 1).
elem(51, 2).
