elem(1, 11).
elem(2, 5).
elem(3, 4).
elem(4, 7).
elem(5, 3).
elem(6, 10).
elem(7, 5).
elem(8, 1).
elem(9, 14).
elem(10, 12).
elem(11, 5).
elem(12, 3).
elem(13, 2).
elem(14, 13).
elem(15, 5).
elem(16, 13).
elem(17, 5).
elem(18, 2).
elem(19, 18).
elem(20, 1).
elem(21, 1).
elem(22, 8).
elem(23, 7).
elem(24, 5).
elem(25, 14).
elem(26, 1).
elem(27, 5).
elem(28, 9).
elem(29, 4).
elem(30, 7).
elem(31, 14).
elem(32, 4).
elem(33, 2).
elem(34, 10).
elem(35, 1).
elem(36, 9).
elem(37, 7).
elem(38, 6).
elem(39, 7).
elem(40, 17).
elem(41, 2).
elem(42, 1).
elem(43, 16).
elem(44, 1).
elem(45, 3).
elem(46, 12).
elem(47, 4).
elem(48, 4).
elem(49, 2).
elem(50, 11).
elem(51, 7).
elem(52, 6).
elem(53, 11).
elem(54, 3).
elem(55, 1).
elem(56, 6).
elem(57, 13).
