elem(1, 85).
elem(2, 12).
elem(3, 3).
elem(4, 27).
elem(5, 27).
elem(6, 46).
elem(7, 84).
elem(8, 5).
elem(9, 11).
elem(10, 27).
elem(11, 55).
elem(12, 18).
elem(13, 56).
elem(14, 4).
elem(15, 40).
elem(16, 15).
elem(17, 47).
elem(18, 38).
elem(19, 39).
elem(20, 11).
elem(21, 50).
elem(22, 60).
elem(23, 30).
elem(24, 10).
elem(25, 69).
elem(26, 17).
elem(27, 14).
elem(28, 73).
elem(29, 8).
elem(30, 19).
elem(31, 72).
elem(32, 13).
elem(33, 15).
elem(34, 52).
elem(35, 16).
elem(36, 32).
elem(37, 4).
elem(38, 23).
elem(39, 73).
elem(40, 86).
elem(41, 8).
elem(42, 6).
elem(43, 6).
elem(44, 2).
elem(45, 92).
elem(46, 95).
elem(47, 2).
elem(48, 3).
