elem(1, 12).
elem(2, 76).
elem(3, 12).
elem(4, 9).
elem(5, 26).
elem(6, 65).
elem(7, 39).
elem(8, 48).
elem(9, 13).
elem(10, 11).
elem(11, 53).
elem(12, 36).
elem(13, 94).
elem(14, 4).
elem(15, 2).
elem(16, 31).
elem(17, 4).
elem(18, 65).
elem(19, 59).
elem(20, 35).
elem(21, 6).
elem(22, 46).
elem(23, 31).
elem(24, 23).
elem(25, 27).
elem(26, 12).
elem(27, 61).
elem(28, 23).
elem(29, 51).
elem(30, 26).
elem(31, 37).
elem(32, 32).
elem(33, 31).
elem(34, 78).
elem(35, 1).
elem(36, 21).
elem(37, 58).
elem(38, 7).
elem(39, 35).
elem(40, 51).
elem(41, 6).
elem(42, 43).
elem(43, 78).
elem(44, 10).
elem(45, 12).
elem(46, 7).
elem(47, 85).
elem(48, 8).
elem(49, 22).
elem(50, 72).
elem(51, 6).
elem(52, 18).
elem(53, 31).
elem(54, 51).
