elem(1, 63).
elem(2, 13).
elem(3, 24).
elem(4, 30).
elem(5, 5).
elem(6, 65).
elem(7, 58).
elem(8, 33).
elem(9, 9).
elem(10, 46).
elem(11, 23).
elem(12, 31).
elem(13, 54).
elem(14, 14).
elem(15, 32).
elem(16, 67).
elem(17, 8).
elem(18, 25).
elem(19, 79).
elem(20, 4).
elem(21, 17).
elem(22, 94).
elem(23, 5).
elem(24, 1).
elem(25, 33).
elem(26, 46).
elem(27, 21).
elem(28, 34).
elem(29, 56).
elem(30, 10).
elem(31, 5).
elem(32, 93).
elem(33, 2).
elem(34, 11).
elem(35, 21).
elem(36, 68).
elem(37, 36).
elem(38, 51).
elem(39, 13).
elem(40, 17).
elem(41, 48).
elem(42, 35).
