elem(1, 21).
elem(2, 20).
elem(3, 59).
elem(4, 60).
elem(5, 30).
elem(6, 10).
elem(7, 61).
elem(8, 27).
elem(9, 12).
elem(10, 41).
elem(11, 28).
elem(12, 31).
elem(13, 87).
elem(14, 10).
elem(15, 3).
elem(16, 50).
elem(17, 22).
elem(18, 28).
elem(19, 38).
elem(20, 41).
elem(21, 21).
elem(22, 29).
elem(23, 18).
elem(24, 53).
elem(25, 34).
elem(26, 15).
elem(27, 51).
elem(28, 8).
elem(29, 44).
elem(30, 48).
elem(31, 16).
elem(32, 62).
elem(33, 22).
elem(34, 81).
elem(35, 7).
elem(36, 12).
elem(37, 35).
elem(38, 58).
elem(39, 7).
elem(40, 71).
elem(41, 13).
elem(42, 16).
elem(43, 27).
elem(44, 2).
elem(45, 71).
elem(46, 27).
elem(47, 37).
elem(48, 36).
elem(49, 38).
elem(50, 59).
elem(51, 3).
