elem(1, 27).
elem(2, 19).
elem(3, 54).
elem(4, 92).
elem(5, 2).
elem(6, 6).
elem(7, 13).
elem(8, 31).
elem(9, 56).
elem(10, 91).
elem(11, 5).
elem(12, 4).
elem(13, 56).
elem(14, 39).
elem(15, 5).
elem(16, 69).
elem(17, 12).
elem(18, 19).
elem(19, 34).
elem(20, 13).
elem(21, 53).
elem(22, 56).
elem(23, 41).
elem(24, 3).
elem(25, 96).
elem(26, 1).
elem(27, 3).
elem(28, 73).
elem(29, 9).
elem(30, 18).
elem(31, 25).
elem(32, 19).
elem(33, 56).
elem(34, 66).
elem(35, 30).
elem(36, 4).
elem(37, 92).
elem(38, 4).
elem(39, 4).
elem(40, 86).
elem(41, 12).
elem(42, 2).
