elem(1, 6).
elem(2, 5).
elem(3, 89).
elem(4, 5).
elem(5, 16).
elem(6, 79).
elem(7, 20).
elem(8, 79).
elem(9, 1).
elem(10, 26).
elem(11, 25).
elem(12, 49).
elem(13, 16).
elem(14, 54).
elem(15, 30).
elem(16, 47).
elem(17, 24).
elem(18, 29).
elem(19, 78).
elem(20, 12).
elem(21, 10).
elem(22, 75).
elem(23, 24).
elem(24, 1).
elem(25, 71).
elem(26, 26).
elem(27, 3).
elem(28, 92).
elem(29, 4).
elem(30, 4).
elem(31, 83).
elem(32, 14).
elem(33, 3).
elem(34, 71).
elem(35, 20).
elem(36, 9).
elem(37, 21).
elem(38, 78).
elem(39, 1).
