elem(1, 95).
elem(2, 4).
elem(3, 1).
elem(4, 83).
elem(5, 14).
elem(6, 3).
elem(7, 16).
elem(8, 10).
elem(9, 74).
elem(10, 98).
elem(11, 1).
elem(12, 1).
elem(13, 75).
elem(14, 9).
elem(15, 16).
elem(16, 26).
elem(17, 20).
elem(18, 54).
elem(19, 9).
elem(20, 73).
elem(21, 18).
elem(22, 80).
elem(23, 14).
elem(24, 6).
elem(25, 85).
elem(26, 5).
elem(27, 10).
elem(28, 96).
elem(29, 3).
elem(30, 1).
elem(31, 27).
elem(32, 56).
elem(33, 17).
elem(34, 43).
elem(35, 16).
elem(36, 41).
elem(37, 97).
elem(38, 1).
elem(39, 2).
elem(40, 48).
elem(41, 27).
elem(42, 25).
elem(43, 66).
elem(44, 22).
elem(45, 12).
