elem(1, 87).
elem(2, 11).
elem(3, 2).
elem(4, 80).
elem(5, 12).
elem(6, 8).
elem(7, 17).
elem(8, 42).
elem(9, 41).
elem(10, 90).
elem(11, 2).
elem(12, 8).
elem(13, 43).
elem(14, 34).
elem(15, 23).
elem(16, 83).
elem(17, 10).
elem(18, 7).
elem(19, 80).
elem(20, 1).
elem(21, 19).
elem(22, 79).
elem(23, 16).
elem(24, 5).
elem(25, 18).
elem(26, 62).
elem(27, 20).
elem(28, 18).
elem(29, 24).
elem(30, 58).
elem(31, 12).
elem(32, 30).
elem(33, 58).
elem(34, 12).
elem(35, 80).
elem(36, 8).
elem(37, 93).
elem(38, 2).
elem(39, 5).
elem(40, 77).
elem(41, 19).
elem(42, 4).
