elem(1, 17).
elem(2, 64).
elem(3, 19).
elem(4, 74).
elem(5, 10).
elem(6, 16).
elem(7, 33).
elem(8, 47).
elem(9, 20).
elem(10, 68).
elem(11, 18).
elem(12, 14).
elem(13, 5).
elem(14, 31).
elem(15, 64).
elem(16, 17).
elem(17, 3).
elem(18, 80).
elem(19, 85).
elem(20, 9).
elem(21, 6).
elem(22, 88).
elem(23, 7).
elem(24, 5).
elem(25, 45).
elem(26, 25).
elem(27, 30).
elem(28, 56).
elem(29, 17).
elem(30, 27).
elem(31, 59).
elem(32, 32).
elem(33, 9).
elem(34, 87).
elem(35, 8).
elem(36, 5).
elem(37, 1).
elem(38, 16).
elem(39, 83).
elem(40, 6).
elem(41, 70).
elem(42, 24).
elem(43, 36).
elem(44, 28).
elem(45, 36).
elem(46, 24).
elem(47, 20).
elem(48, 56).
elem(49, 66).
elem(50, 17).
elem(51, 17).
elem(52, 90).
elem(53, 2).
elem(54, 8).
