elem(1, 75).
elem(2, 24).
elem(3, 1).
elem(4, 17).
elem(5, 37).
elem(6, 46).
elem(7, 44).
elem(8, 32).
elem(9, 24).
elem(10, 14).
elem(11, 11).
elem(12, 75).
elem(13, 96).
elem(14, 2).
elem(15, 2).
elem(16, 40).
elem(17, 16).
elem(18, 44).
elem(19, 86).
elem(20, 10).
elem(21, 4).
elem(22, 7).
elem(23, 48).
elem(24, 45).
elem(25, 79).
elem(26, 2).
elem(27, 19).
elem(28, 88).
elem(29, 11).
elem(30, 1).
elem(31, 15).
elem(32, 49).
elem(33, 36).
elem(34, 57).
elem(35, 35).
elem(36, 8).
elem(37, 47).
elem(38, 10).
elem(39, 43).
