elem(1, 2).
elem(2, 51).
elem(3, 47).
elem(4, 7).
elem(5, 80).
elem(6, 13).
elem(7, 27).
elem(8, 8).
elem(9, 65).
elem(10, 75).
elem(11, 4).
elem(12, 21).
elem(13, 71).
elem(14, 8).
elem(15, 21).
elem(16, 1).
elem(17, 28).
elem(18, 71).
elem(19, 48).
elem(20, 22).
elem(21, 30).
elem(22, 88).
elem(23, 9).
elem(24, 3).
elem(25, 91).
elem(26, 5).
elem(27, 4).
elem(28, 43).
elem(29, 32).
elem(30, 25).
elem(31, 31).
elem(32, 40).
elem(33, 29).
elem(34, 9).
elem(35, 83).
elem(36, 8).
elem(37, 82).
elem(38, 10).
elem(39, 8).
elem(40, 13).
elem(41, 9).
elem(42, 78).
