elem(1, 92).
elem(2, 2).
elem(3, 6).
elem(4, 77).
elem(5, 15).
elem(6, 8).
elem(7, 10).
elem(8, 47).
elem(9, 43).
elem(10, 47).
elem(11, 30).
elem(12, 23).
elem(13, 38).
elem(14, 4).
elem(15, 58).
elem(16, 14).
elem(17, 83).
elem(18, 3).
elem(19, 98).
elem(20, 1).
elem(21, 1).
elem(22, 29).
elem(23, 22).
elem(24, 49).
elem(25, 84).
elem(26, 13).
elem(27, 3).
elem(28, 15).
elem(29, 64).
elem(30, 21).
elem(31, 60).
elem(32, 37).
elem(33, 3).
elem(34, 87).
elem(35, 1).
elem(36, 12).
elem(37, 13).
elem(38, 14).
elem(39, 73).
elem(40, 54).
elem(41, 37).
elem(42, 9).
elem(43, 25).
elem(44, 31).
elem(45, 44).
elem(46, 65).
elem(47, 29).
elem(48, 6).
