elem(1, 17).
elem(2, 62).
elem(3, 21).
elem(4, 4).
elem(5, 31).
elem(6, 65).
elem(7, 1).
elem(8, 34).
elem(9, 65).
elem(10, 48).
elem(11, 37).
elem(12, 15).
elem(13, 88).
elem(14, 6).
elem(15, 6).
elem(16, 68).
elem(17, 23).
elem(18, 9).
elem(19, 28).
elem(20, 51).
elem(21, 21).
elem(22, 76).
elem(23, 22).
elem(24, 2).
elem(25, 72).
elem(26, 25).
elem(27, 3).
elem(28, 8).
elem(29, 84).
elem(30, 8).
elem(31, 21).
elem(32, 58).
elem(33, 21).
elem(34, 51).
elem(35, 46).
elem(36, 3).
elem(37, 59).
elem(38, 9).
elem(39, 32).
elem(40, 2).
elem(41, 55).
elem(42, 43).
elem(43, 27).
elem(44, 5).
elem(45, 68).
elem(46, 22).
elem(47, 3).
elem(48, 75).
elem(49, 92).
elem(50, 7).
elem(51, 1).
elem(52, 79).
elem(53, 9).
elem(54, 12).
elem(55, 47).
elem(56, 25).
elem(57, 28).
