elem(1, 13).
elem(2, 85).
elem(3, 2).
elem(4, 14).
elem(5, 29).
elem(6, 57).
elem(7, 40).
elem(8, 10).
elem(9, 50).
elem(10, 19).
elem(11, 56).
elem(12, 25).
elem(13, 29).
elem(14, 65).
elem(15, 6).
elem(16, 1).
elem(17, 51).
elem(18, 48).
elem(19, 25).
elem(20, 5).
elem(21, 70).
elem(22, 13).
elem(23, 26).
elem(24, 61).
elem(25, 41).
elem(26, 10).
elem(27, 49).
elem(28, 77).
elem(29, 4).
elem(30, 19).
elem(31, 3).
elem(32, 18).
elem(33, 79).
elem(34, 29).
elem(35, 43).
elem(36, 28).
elem(37, 63).
elem(38, 3).
elem(39, 34).
elem(40, 52).
elem(41, 6).
elem(42, 42).
elem(43, 22).
elem(44, 66).
elem(45, 12).
elem(46, 36).
elem(47, 28).
elem(48, 36).
elem(49, 59).
elem(50, 25).
elem(51, 16).
