elem(1, 36).
elem(2, 16).
elem(3, 48).
elem(4, 76).
elem(5, 14).
elem(6, 10).
elem(7, 24).
elem(8, 11).
elem(9, 65).
elem(10, 30).
elem(11, 7).
elem(12, 63).
elem(13, 43).
elem(14, 30).
elem(15, 27).
elem(16, 94).
elem(17, 1).
elem(18, 5).
elem(19, 30).
elem(20, 10).
elem(21, 60).
elem(22, 27).
elem(23, 47).
elem(24, 26).
elem(25, 88).
elem(26, 10).
elem(27, 2).
elem(28, 18).
elem(29, 20).
elem(30, 62).
elem(31, 72).
elem(32, 14).
elem(33, 14).
elem(34, 16).
elem(35, 42).
elem(36, 42).
elem(37, 16).
elem(38, 66).
elem(39, 18).
elem(40, 47).
elem(41, 49).
elem(42, 4).
elem(43, 76).
elem(44, 3).
elem(45, 21).
elem(46, 87).
elem(47, 5).
elem(48, 8).
elem(49, 50).
elem(50, 10).
elem(51, 40).
elem(52, 11).
elem(53, 25).
elem(54, 64).
