elem(1, 68).
elem(2, 29).
elem(3, 3).
elem(4, 95).
elem(5, 1).
elem(6, 4).
elem(7, 64).
elem(8, 13).
elem(9, 23).
elem(10, 69).
elem(11, 19).
elem(12, 12).
elem(13, 81).
elem(14, 16).
elem(15, 3).
elem(16, 19).
elem(17, 72).
elem(18, 9).
elem(19, 70).
elem(20, 5).
elem(21, 25).
elem(22, 30).
elem(23, 42).
elem(24, 28).
elem(25, 36).
elem(26, 17).
elem(27, 47).
elem(28, 93).
elem(29, 6).
elem(30, 1).
elem(31, 13).
elem(32, 25).
elem(33, 62).
elem(34, 5).
elem(35, 37).
elem(36, 58).
elem(37, 71).
elem(38, 3).
elem(39, 26).
elem(40, 74).
elem(41, 10).
elem(42, 16).
elem(43, 98).
elem(44, 1).
elem(45, 1).
elem(46, 23).
elem(47, 6).
elem(48, 71).
