elem(1, 69).
elem(2, 19).
elem(3, 12).
elem(4, 76).
elem(5, 10).
elem(6, 14).
elem(7, 58).
elem(8, 17).
elem(9, 25).
elem(10, 59).
elem(11, 36).
elem(12, 5).
elem(13, 74).
elem(14, 24).
elem(15, 2).
elem(16, 4).
elem(17, 58).
elem(18, 38).
elem(19, 98).
elem(20, 1).
elem(21, 1).
elem(22, 75).
elem(23, 3).
elem(24, 22).
elem(25, 69).
elem(26, 8).
elem(27, 23).
elem(28, 81).
elem(29, 16).
elem(30, 3).
elem(31, 49).
elem(32, 30).
elem(33, 21).
elem(34, 78).
elem(35, 19).
elem(36, 3).
elem(37, 25).
elem(38, 18).
elem(39, 57).
elem(40, 7).
elem(41, 40).
elem(42, 53).
elem(43, 69).
elem(44, 5).
elem(45, 26).
elem(46, 68).
elem(47, 27).
elem(48, 5).
