elem(1, 62).
elem(2, 9).
elem(3, 29).
elem(4, 34).
elem(5, 22).
elem(6, 44).
elem(7, 58).
elem(8, 9).
elem(9, 33).
elem(10, 50).
elem(11, 3).
elem(12, 47).
elem(13, 71).
elem(14, 11).
elem(15, 18).
elem(16, 58).
elem(17, 19).
elem(18, 23).
elem(19, 79).
elem(20, 4).
elem(21, 17).
elem(22, 25).
elem(23, 15).
elem(24, 60).
elem(25, 16).
elem(26, 16).
elem(27, 68).
elem(28, 38).
elem(29, 50).
elem(30, 12).
elem(31, 87).
elem(32, 1).
elem(33, 12).
elem(34, 36).
elem(35, 3).
elem(36, 61).
elem(37, 88).
elem(38, 7).
elem(39, 5).
elem(40, 44).
elem(41, 35).
elem(42, 21).
