elem(1, 90).
elem(2, 5).
elem(3, 5).
elem(4, 52).
elem(5, 37).
elem(6, 11).
elem(7, 92).
elem(8, 5).
elem(9, 3).
elem(10, 60).
elem(11, 26).
elem(12, 14).
elem(13, 3).
elem(14, 88).
elem(15, 9).
elem(16, 17).
elem(17, 70).
elem(18, 13).
elem(19, 35).
elem(20, 53).
elem(21, 12).
elem(22, 81).
elem(23, 3).
elem(24, 16).
elem(25, 42).
elem(26, 20).
elem(27, 38).
elem(28, 2).
elem(29, 56).
elem(30, 42).
elem(31, 33).
elem(32, 60).
elem(33, 7).
elem(34, 72).
elem(35, 20).
elem(36, 8).
elem(37, 75).
elem(38, 9).
elem(39, 16).
elem(40, 3).
elem(41, 30).
elem(42, 67).
