elem(1, 33).
elem(2, 4).
elem(3, 63).
elem(4, 31).
elem(5, 48).
elem(6, 21).
elem(7, 75).
elem(8, 24).
elem(9, 1).
elem(10, 56).
elem(11, 14).
elem(12, 30).
elem(13, 96).
elem(14, 1).
elem(15, 3).
elem(16, 70).
elem(17, 13).
elem(18, 17).
elem(19, 20).
elem(20, 18).
elem(21, 62).
elem(22, 71).
elem(23, 26).
elem(24, 3).
elem(25, 47).
elem(26, 12).
elem(27, 41).
elem(28, 17).
elem(29, 31).
elem(30, 52).
elem(31, 78).
elem(32, 1).
elem(33, 21).
elem(34, 27).
elem(35, 26).
elem(36, 47).
elem(37, 93).
elem(38, 4).
elem(39, 3).
elem(40, 77).
elem(41, 10).
elem(42, 13).
elem(43, 66).
elem(44, 1).
elem(45, 33).
elem(46, 94).
elem(47, 2).
elem(48, 4).
elem(49, 54).
elem(50, 31).
elem(51, 15).
elem(52, 13).
elem(53, 86).
elem(54, 1).
elem(55, 64).
elem(56, 17).
elem(57, 19).
