elem(1, 18).
elem(2, 18).
elem(3, 64).
elem(4, 38).
elem(5, 4).
elem(6, 58).
elem(7, 23).
elem(8, 60).
elem(9, 17).
elem(10, 40).
elem(11, 25).
elem(12, 35).
elem(13, 60).
elem(14, 30).
elem(15, 10).
elem(16, 50).
elem(17, 37).
elem(18, 13).
elem(19, 77).
elem(20, 12).
elem(21, 11).
elem(22, 60).
elem(23, 20).
elem(24, 20).
elem(25, 41).
elem(26, 49).
elem(27, 10).
elem(28, 82).
elem(29, 6).
elem(30, 12).
elem(31, 18).
elem(32, 72).
elem(33, 10).
elem(34, 81).
elem(35, 8).
elem(36, 11).
elem(37, 13).
elem(38, 51).
elem(39, 36).
elem(40, 72).
elem(41, 2).
elem(42, 26).
elem(43, 33).
elem(44, 43).
elem(45, 24).
elem(46, 90).
elem(47, 2).
elem(48, 8).
elem(49, 83).
elem(50, 14).
elem(51, 3).
elem(52, 53).
elem(53, 46).
elem(54, 1).
