elem(1, 70).
elem(2, 24).
elem(3, 6).
elem(4, 32).
elem(5, 16).
elem(6, 52).
elem(7, 6).
elem(8, 73).
elem(9, 21).
elem(10, 66).
elem(11, 26).
elem(12, 8).
elem(13, 60).
elem(14, 29).
elem(15, 11).
elem(16, 28).
elem(17, 38).
elem(18, 34).
elem(19, 1).
elem(20, 13).
elem(21, 86).
elem(22, 26).
elem(23, 50).
elem(24, 24).
elem(25, 55).
elem(26, 41).
elem(27, 4).
elem(28, 83).
elem(29, 7).
elem(30, 10).
elem(31, 15).
elem(32, 69).
elem(33, 16).
elem(34, 32).
elem(35, 19).
elem(36, 49).
elem(37, 84).
elem(38, 8).
elem(39, 8).
elem(40, 54).
elem(41, 32).
elem(42, 14).
elem(43, 30).
elem(44, 16).
elem(45, 54).
elem(46, 74).
elem(47, 23).
elem(48, 3).
elem(49, 31).
elem(50, 58).
elem(51, 11).
