elem(1, 78).
elem(2, 21).
elem(3, 1).
elem(4, 84).
elem(5, 4).
elem(6, 12).
elem(7, 43).
elem(8, 50).
elem(9, 7).
elem(10, 16).
elem(11, 2).
elem(12, 82).
elem(13, 44).
elem(14, 32).
elem(15, 24).
elem(16, 13).
elem(17, 86).
elem(18, 1).
elem(19, 90).
elem(20, 7).
elem(21, 3).
elem(22, 36).
elem(23, 57).
elem(24, 7).
elem(25, 55).
elem(26, 7).
elem(27, 38).
elem(28, 40).
elem(29, 1).
elem(30, 59).
elem(31, 98).
elem(32, 1).
elem(33, 1).
elem(34, 97).
elem(35, 1).
elem(36, 2).
elem(37, 56).
elem(38, 12).
elem(39, 32).
elem(40, 22).
elem(41, 43).
elem(42, 35).
elem(43, 80).
elem(44, 7).
elem(45, 13).
elem(46, 70).
elem(47, 1).
elem(48, 29).
elem(49, 1).
elem(50, 90).
elem(51, 9).
elem(52, 28).
elem(53, 48).
elem(54, 24).
elem(55, 2).
elem(56, 72).
elem(57, 26).
