elem(1, 49).
elem(2, 46).
elem(3, 5).
elem(4, 77).
elem(5, 1).
elem(6, 22).
elem(7, 42).
elem(8, 31).
elem(9, 27).
elem(10, 94).
elem(11, 1).
elem(12, 5).
elem(13, 87).
elem(14, 1).
elem(15, 12).
elem(16, 1).
elem(17, 55).
elem(18, 44).
elem(19, 1).
elem(20, 14).
elem(21, 85).
elem(22, 62).
elem(23, 25).
elem(24, 13).
elem(25, 77).
elem(26, 13).
elem(27, 10).
elem(28, 9).
elem(29, 14).
elem(30, 77).
elem(31, 61).
elem(32, 31).
elem(33, 8).
elem(34, 12).
elem(35, 50).
elem(36, 38).
elem(37, 5).
elem(38, 92).
elem(39, 3).
elem(40, 84).
elem(41, 8).
elem(42, 8).
elem(43, 95).
elem(44, 1).
elem(45, 4).
elem(46, 93).
elem(47, 6).
elem(48, 1).
elem(49, 29).
elem(50, 15).
elem(51, 56).
elem(52, 53).
elem(53, 42).
elem(54, 5).
