elem(1, 11).
elem(2, 71).
elem(3, 18).
elem(4, 76).
elem(5, 11).
elem(6, 13).
elem(7, 80).
elem(8, 8).
elem(9, 12).
elem(10, 53).
elem(11, 4).
elem(12, 43).
elem(13, 89).
elem(14, 3).
elem(15, 8).
elem(16, 61).
elem(17, 14).
elem(18, 25).
elem(19, 81).
elem(20, 16).
elem(21, 3).
elem(22, 14).
elem(23, 57).
elem(24, 29).
elem(25, 97).
elem(26, 2).
elem(27, 1).
elem(28, 76).
elem(29, 14).
elem(30, 10).
elem(31, 5).
elem(32, 9).
elem(33, 86).
elem(34, 25).
elem(35, 38).
elem(36, 37).
elem(37, 50).
elem(38, 36).
elem(39, 14).
elem(40, 18).
elem(41, 43).
elem(42, 39).
elem(43, 30).
elem(44, 22).
elem(45, 48).
elem(46, 43).
elem(47, 8).
elem(48, 49).
elem(49, 75).
elem(50, 7).
elem(51, 18).
elem(52, 95).
elem(53, 1).
elem(54, 4).
