elem(1, 32).
elem(2, 45).
elem(3, 23).
elem(4, 59).
elem(5, 14).
elem(6, 27).
elem(7, 81).
elem(8, 1).
elem(9, 18).
elem(10, 49).
elem(11, 21).
elem(12, 30).
elem(13, 89).
elem(14, 10).
elem(15, 1).
elem(16, 43).
elem(17, 52).
elem(18, 5).
elem(19, 53).
elem(20, 3).
elem(21, 44).
elem(22, 3).
elem(23, 17).
elem(24, 80).
elem(25, 53).
elem(26, 11).
elem(27, 36).
elem(28, 14).
elem(29, 81).
elem(30, 5).
elem(31, 37).
elem(32, 32).
elem(33, 31).
elem(34, 54).
elem(35, 26).
elem(36, 20).
elem(37, 5).
elem(38, 30).
elem(39, 65).
elem(40, 8).
elem(41, 17).
elem(42, 75).
