elem(1, 58).
elem(2, 31).
elem(3, 11).
elem(4, 50).
elem(5, 4).
elem(6, 46).
elem(7, 90).
elem(8, 6).
elem(9, 4).
elem(10, 57).
elem(11, 3).
elem(12, 40).
elem(13, 74).
elem(14, 2).
elem(15, 24).
elem(16, 29).
elem(17, 18).
elem(18, 53).
elem(19, 23).
elem(20, 8).
elem(21, 69).
elem(22, 15).
elem(23, 17).
elem(24, 68).
elem(25, 64).
elem(26, 35).
elem(27, 1).
elem(28, 88).
elem(29, 7).
elem(30, 5).
elem(31, 86).
elem(32, 7).
elem(33, 7).
elem(34, 7).
elem(35, 37).
elem(36, 56).
elem(37, 88).
elem(38, 7).
elem(39, 5).
elem(40, 49).
elem(41, 42).
elem(42, 9).
elem(43, 2).
elem(44, 91).
elem(45, 7).
