elem(1, 98).
elem(2, 1).
elem(3, 1).
elem(4, 2).
elem(5, 42).
elem(6, 56).
elem(7, 78).
elem(8, 6).
elem(9, 16).
elem(10, 42).
elem(11, 2).
elem(12, 56).
elem(13, 44).
elem(14, 31).
elem(15, 25).
elem(16, 84).
elem(17, 10).
elem(18, 6).
elem(19, 26).
elem(20, 58).
elem(21, 16).
elem(22, 84).
elem(23, 11).
elem(24, 5).
elem(25, 57).
elem(26, 1).
elem(27, 42).
elem(28, 15).
elem(29, 68).
elem(30, 17).
elem(31, 47).
elem(32, 4).
elem(33, 49).
elem(34, 79).
elem(35, 19).
elem(36, 2).
elem(37, 26).
elem(38, 29).
elem(39, 45).
elem(40, 97).
elem(41, 2).
elem(42, 1).
