elem(1, 60).
elem(2, 18).
elem(3, 22).
elem(4, 90).
elem(5, 4).
elem(6, 6).
elem(7, 8).
elem(8, 71).
elem(9, 21).
elem(10, 8).
elem(11, 29).
elem(12, 63).
elem(13, 43).
elem(14, 34).
elem(15, 23).
elem(16, 12).
elem(17, 14).
elem(18, 74).
elem(19, 4).
elem(20, 21).
elem(21, 75).
elem(22, 28).
elem(23, 3).
elem(24, 69).
elem(25, 62).
elem(26, 20).
elem(27, 18).
elem(28, 69).
elem(29, 11).
elem(30, 20).
elem(31, 33).
elem(32, 58).
elem(33, 9).
elem(34, 10).
elem(35, 67).
elem(36, 23).
elem(37, 24).
elem(38, 32).
elem(39, 44).
elem(40, 59).
elem(41, 28).
elem(42, 13).
elem(43, 80).
elem(44, 16).
elem(45, 4).
elem(46, 44).
elem(47, 36).
elem(48, 20).
elem(49, 8).
elem(50, 2).
elem(51, 90).
elem(52, 33).
elem(53, 51).
elem(54, 16).
