elem(1, 21).
elem(2, 20).
elem(3, 59).
elem(4, 64).
elem(5, 12).
elem(6, 24).
elem(7, 55).
elem(8, 21).
elem(9, 24).
elem(10, 38).
elem(11, 50).
elem(12, 12).
elem(13, 13).
elem(14, 11).
elem(15, 76).
elem(16, 68).
elem(17, 18).
elem(18, 14).
elem(19, 14).
elem(20, 73).
elem(21, 13).
elem(22, 49).
elem(23, 17).
elem(24, 34).
elem(25, 43).
elem(26, 7).
elem(27, 50).
elem(28, 55).
elem(29, 30).
elem(30, 15).
elem(31, 23).
elem(32, 4).
elem(33, 73).
elem(34, 33).
elem(35, 44).
elem(36, 23).
elem(37, 4).
elem(38, 5).
elem(39, 91).
elem(40, 6).
elem(41, 80).
elem(42, 14).
elem(43, 41).
elem(44, 11).
elem(45, 48).
elem(46, 62).
elem(47, 8).
elem(48, 30).
elem(49, 69).
elem(50, 8).
elem(51, 23).
elem(52, 75).
elem(53, 5).
elem(54, 20).
elem(55, 59).
elem(56, 24).
elem(57, 17).
