elem(1, 59).
elem(2, 22).
elem(3, 19).
elem(4, 36).
elem(5, 38).
elem(6, 26).
elem(7, 25).
elem(8, 62).
elem(9, 13).
elem(10, 86).
elem(11, 11).
elem(12, 3).
elem(13, 53).
elem(14, 29).
elem(15, 18).
elem(16, 87).
elem(17, 5).
elem(18, 8).
elem(19, 94).
elem(20, 1).
elem(21, 5).
elem(22, 44).
elem(23, 31).
elem(24, 25).
elem(25, 38).
elem(26, 18).
elem(27, 44).
elem(28, 43).
elem(29, 6).
elem(30, 51).
elem(31, 82).
elem(32, 11).
elem(33, 7).
elem(34, 89).
elem(35, 3).
elem(36, 8).
elem(37, 7).
elem(38, 48).
elem(39, 45).
elem(40, 54).
elem(41, 30).
elem(42, 16).
elem(43, 40).
elem(44, 44).
elem(45, 16).
elem(46, 83).
elem(47, 4).
elem(48, 13).
elem(49, 36).
elem(50, 32).
elem(51, 32).
