elem(1, 58).
elem(2, 31).
elem(3, 11).
elem(4, 61).
elem(5, 33).
elem(6, 6).
elem(7, 26).
elem(8, 67).
elem(9, 7).
elem(10, 98).
elem(11, 1).
elem(12, 1).
elem(13, 93).
elem(14, 5).
elem(15, 2).
elem(16, 22).
elem(17, 16).
elem(18, 62).
elem(19, 89).
elem(20, 8).
elem(21, 3).
elem(22, 30).
elem(23, 62).
elem(24, 8).
elem(25, 51).
elem(26, 40).
elem(27, 9).
elem(28, 16).
elem(29, 42).
elem(30, 42).
elem(31, 64).
elem(32, 1).
elem(33, 35).
elem(34, 26).
elem(35, 40).
elem(36, 34).
elem(37, 59).
elem(38, 2).
elem(39, 39).
elem(40, 15).
elem(41, 72).
elem(42, 13).
elem(43, 2).
elem(44, 5).
elem(45, 93).
elem(46, 4).
elem(47, 87).
elem(48, 9).
elem(49, 36).
elem(50, 13).
elem(51, 51).
elem(52, 12).
elem(53, 39).
elem(54, 49).
elem(55, 52).
elem(56, 18).
elem(57, 30).
