elem(1, 2).
elem(2, 91).
elem(3, 7).
elem(4, 50).
elem(5, 32).
elem(6, 18).
elem(7, 45).
elem(8, 54).
elem(9, 1).
elem(10, 61).
elem(11, 24).
elem(12, 15).
elem(13, 82).
elem(14, 4).
elem(15, 14).
elem(16, 53).
elem(17, 23).
elem(18, 24).
elem(19, 60).
elem(20, 33).
elem(21, 7).
elem(22, 11).
elem(23, 28).
elem(24, 61).
elem(25, 89).
elem(26, 6).
elem(27, 5).
elem(28, 56).
elem(29, 27).
elem(30, 17).
elem(31, 5).
elem(32, 80).
elem(33, 15).
elem(34, 68).
elem(35, 21).
elem(36, 11).
elem(37, 34).
elem(38, 28).
elem(39, 38).
elem(40, 9).
elem(41, 42).
elem(42, 49).
elem(43, 45).
elem(44, 5).
elem(45, 50).
elem(46, 2).
elem(47, 40).
elem(48, 58).
elem(49, 13).
elem(50, 71).
elem(51, 16).
elem(52, 36).
elem(53, 15).
elem(54, 49).
