elem(1, 78).
elem(2, 7).
elem(3, 15).
elem(4, 87).
elem(5, 1).
elem(6, 12).
elem(7, 97).
elem(8, 1).
elem(9, 2).
elem(10, 49).
elem(11, 30).
elem(12, 21).
elem(13, 72).
elem(14, 1).
elem(15, 27).
elem(16, 82).
elem(17, 10).
elem(18, 8).
elem(19, 49).
elem(20, 16).
elem(21, 35).
elem(22, 70).
elem(23, 19).
elem(24, 11).
elem(25, 2).
elem(26, 9).
elem(27, 89).
elem(28, 57).
elem(29, 18).
elem(30, 25).
elem(31, 12).
elem(32, 75).
elem(33, 13).
elem(34, 80).
elem(35, 14).
elem(36, 6).
elem(37, 68).
elem(38, 8).
elem(39, 24).
elem(40, 34).
elem(41, 32).
elem(42, 34).
elem(43, 85).
elem(44, 11).
elem(45, 4).
elem(46, 25).
elem(47, 52).
elem(48, 23).
elem(49, 46).
elem(50, 16).
elem(51, 38).
elem(52, 83).
elem(53, 8).
elem(54, 9).
