elem(1, 51).
elem(2, 7).
elem(3, 42).
elem(4, 12).
elem(5, 77).
elem(6, 11).
elem(7, 3).
elem(8, 62).
elem(9, 35).
elem(10, 90).
elem(11, 3).
elem(12, 7).
elem(13, 73).
elem(14, 2).
elem(15, 25).
elem(16, 60).
elem(17, 15).
elem(18, 25).
elem(19, 21).
elem(20, 74).
elem(21, 5).
elem(22, 61).
elem(23, 8).
elem(24, 31).
elem(25, 94).
elem(26, 1).
elem(27, 5).
elem(28, 55).
elem(29, 24).
elem(30, 21).
elem(31, 6).
elem(32, 70).
elem(33, 24).
elem(34, 49).
elem(35, 19).
elem(36, 32).
elem(37, 62).
elem(38, 36).
elem(39, 2).
