elem(1, 71418).
elem(2, 8942).
elem(3, 19640).
elem(4, 19446).
elem(5, 641).
elem(6, 79913).
elem(7, 62596).
elem(8, 15107).
elem(9, 22297).
elem(10, 81673).
elem(11, 675).
elem(12, 17652).
elem(13, 79551).
elem(14, 11601).
elem(15, 8848).
elem(16, 1336).
elem(17, 20851).
elem(18, 77813).
elem(19, 65541).
elem(20, 11553).
elem(21, 22906).
elem(22, 5799).
elem(23, 71641).
elem(24, 22560).
elem(25, 42991).
elem(26, 31436).
elem(27, 25573).
elem(28, 47661).
elem(29, 31967).
elem(30, 20372).
elem(31, 1372).
elem(32, 736).
elem(33, 97892).
elem(34, 3894).
elem(35, 87035).
elem(36, 9071).
elem(37, 23066).
elem(38, 44431).
elem(39, 32503).
