elem(1, 73372).
elem(2, 14548).
elem(3, 12080).
elem(4, 49550).
elem(5, 45906).
elem(6, 4544).
elem(7, 42492).
elem(8, 39979).
elem(9, 17529).
elem(10, 97596).
elem(11, 665).
elem(12, 1739).
elem(13, 84874).
elem(14, 10094).
elem(15, 5032).
elem(16, 48900).
elem(17, 49060).
elem(18, 2040).
elem(19, 31588).
elem(20, 65353).
elem(21, 3059).
elem(22, 10219).
elem(23, 77611).
elem(24, 12170).
elem(25, 75722).
elem(26, 3028).
elem(27, 21250).
elem(28, 98394).
elem(29, 1175).
elem(30, 431).
elem(31, 91806).
elem(32, 8061).
elem(33, 133).
elem(34, 54174).
elem(35, 8620).
elem(36, 37206).
elem(37, 63565).
elem(38, 25185).
elem(39, 11250).
elem(40, 69012).
elem(41, 15621).
elem(42, 15367).
elem(43, 32057).
elem(44, 20872).
elem(45, 47071).
