elem(1, 91174).
elem(2, 6703).
elem(3, 2123).
elem(4, 32771).
elem(5, 58153).
elem(6, 9076).
elem(7, 81402).
elem(8, 3683).
elem(9, 14915).
elem(10, 2078).
elem(11, 56208).
elem(12, 41714).
elem(13, 30336).
elem(14, 274).
elem(15, 69390).
elem(16, 84155).
elem(17, 9482).
elem(18, 6363).
elem(19, 13740).
elem(20, 53776).
elem(21, 32484).
elem(22, 13105).
elem(23, 78943).
elem(24, 7952).
elem(25, 45000).
elem(26, 21615).
elem(27, 33385).
elem(28, 68285).
elem(29, 6393).
elem(30, 25322).
elem(31, 94667).
elem(32, 2968).
elem(33, 2365).
elem(34, 68173).
elem(35, 20709).
elem(36, 11118).
