elem(1, 41472).
elem(2, 35716).
elem(3, 22812).
elem(4, 41509).
elem(5, 31508).
elem(6, 26983).
elem(7, 75610).
elem(8, 12478).
elem(9, 11912).
elem(10, 17747).
elem(11, 45811).
elem(12, 36442).
elem(13, 56930).
elem(14, 36687).
elem(15, 6383).
elem(16, 20442).
elem(17, 18883).
elem(18, 60675).
elem(19, 25408).
elem(20, 48249).
elem(21, 26343).
elem(22, 41589).
elem(23, 14676).
elem(24, 43735).
elem(25, 94056).
elem(26, 3186).
elem(27, 2758).
elem(28, 95206).
elem(29, 482).
elem(30, 4312).
elem(31, 79779).
elem(32, 18886).
elem(33, 1335).
elem(34, 47933).
elem(35, 12092).
elem(36, 39975).
elem(37, 93608).
elem(38, 2246).
elem(39, 4146).
