elem(1, 53212).
elem(2, 43024).
elem(3, 3764).
elem(4, 83540).
elem(5, 3444).
elem(6, 13016).
elem(7, 15268).
elem(8, 12594).
elem(9, 72138).
elem(10, 7693).
elem(11, 54400).
elem(12, 37907).
elem(13, 50450).
elem(14, 38786).
elem(15, 10764).
elem(16, 41063).
elem(17, 27216).
elem(18, 31721).
elem(19, 83423).
elem(20, 2110).
elem(21, 14467).
elem(22, 78055).
elem(23, 11881).
elem(24, 10064).
elem(25, 46895).
elem(26, 42630).
elem(27, 10475).
elem(28, 43617).
elem(29, 39982).
elem(30, 16401).
elem(31, 83795).
elem(32, 9834).
elem(33, 6371).
elem(34, 4338).
elem(35, 84590).
elem(36, 11072).
