elem(1, 69350).
elem(2, 4694).
elem(3, 25956).
elem(4, 56066).
elem(5, 9788).
elem(6, 34146).
elem(7, 88461).
elem(8, 10126).
elem(9, 1413).
elem(10, 39643).
elem(11, 27764).
elem(12, 32593).
elem(13, 17097).
elem(14, 46951).
elem(15, 35952).
elem(16, 22552).
elem(17, 11663).
elem(18, 65785).
elem(19, 52560).
elem(20, 17587).
elem(21, 29853).
elem(22, 55803).
elem(23, 11905).
elem(24, 32292).
elem(25, 95511).
elem(26, 2307).
elem(27, 2182).
elem(28, 1809).
elem(29, 58006).
elem(30, 40185).
elem(31, 73153).
elem(32, 13086).
elem(33, 13761).
elem(34, 78782).
elem(35, 10932).
elem(36, 10286).
elem(37, 52646).
elem(38, 9274).
elem(39, 38080).
