elem(1, 88517).
elem(2, 10565).
elem(3, 918).
elem(4, 94755).
elem(5, 678).
elem(6, 4567).
elem(7, 13416).
elem(8, 29964).
elem(9, 56620).
elem(10, 77112).
elem(11, 16602).
elem(12, 6286).
elem(13, 26852).
elem(14, 53474).
elem(15, 19674).
elem(16, 35943).
elem(17, 47991).
elem(18, 16066).
elem(19, 94214).
elem(20, 98).
elem(21, 5688).
elem(22, 94525).
elem(23, 1551).
elem(24, 3924).
elem(25, 34001).
elem(26, 7223).
elem(27, 58776).
elem(28, 40291).
elem(29, 19414).
elem(30, 40295).
elem(31, 15059).
elem(32, 67297).
elem(33, 17644).
elem(34, 10961).
elem(35, 4816).
elem(36, 84223).
elem(37, 62971).
elem(38, 24433).
elem(39, 12596).
elem(40, 18289).
elem(41, 1414).
elem(42, 80297).
elem(43, 46149).
elem(44, 88).
elem(45, 53763).
