elem(1, 63894).
elem(2, 7892).
elem(3, 28214).
elem(4, 70612).
elem(5, 5833).
elem(6, 23555).
elem(7, 58807).
elem(8, 11343).
elem(9, 29850).
elem(10, 53140).
elem(11, 20832).
elem(12, 26028).
elem(13, 54396).
elem(14, 18650).
elem(15, 26954).
elem(16, 33995).
elem(17, 51325).
elem(18, 14680).
elem(19, 99678).
elem(20, 62).
elem(21, 260).
elem(22, 95157).
elem(23, 1540).
elem(24, 3303).
elem(25, 21914).
elem(26, 38574).
elem(27, 39512).
elem(28, 92816).
elem(29, 3898).
elem(30, 3286).
elem(31, 37271).
elem(32, 31756).
elem(33, 30973).
