elem(1, 78363).
elem(2, 13683).
elem(3, 7954).
elem(4, 44565).
elem(5, 15369).
elem(6, 40066).
elem(7, 92046).
elem(8, 7194).
elem(9, 760).
elem(10, 65961).
elem(11, 14313).
elem(12, 19726).
elem(13, 82096).
elem(14, 13524).
elem(15, 4380).
elem(16, 72452).
elem(17, 21512).
elem(18, 6036).
elem(19, 47242).
elem(20, 43377).
elem(21, 9381).
elem(22, 34430).
elem(23, 12581).
elem(24, 52989).
elem(25, 59135).
elem(26, 9217).
elem(27, 31648).
elem(28, 83104).
elem(29, 1624).
elem(30, 15272).
elem(31, 73617).
elem(32, 24427).
elem(33, 1956).
elem(34, 96136).
elem(35, 2608).
elem(36, 1256).
