elem(1, 33918).
elem(2, 17104).
elem(3, 48978).
elem(4, 66851).
elem(5, 12491).
elem(6, 20658).
elem(7, 79185).
elem(8, 6753).
elem(9, 14062).
elem(10, 59357).
elem(11, 7790).
elem(12, 32853).
elem(13, 76703).
elem(14, 173).
elem(15, 23124).
elem(16, 92477).
elem(17, 7265).
elem(18, 258).
elem(19, 46958).
elem(20, 21637).
elem(21, 31405).
elem(22, 94546).
elem(23, 3952).
elem(24, 1502).
elem(25, 30486).
elem(26, 31547).
elem(27, 37967).
elem(28, 92707).
elem(29, 2862).
elem(30, 4431).
elem(31, 78454).
elem(32, 20).
elem(33, 21526).
elem(34, 11864).
elem(35, 63847).
elem(36, 24289).
elem(37, 70161).
elem(38, 2673).
elem(39, 27166).
elem(40, 18359).
elem(41, 57066).
elem(42, 24575).
