elem(1, 19269).
elem(2, 58331).
elem(3, 22400).
elem(4, 98538).
elem(5, 1340).
elem(6, 122).
elem(7, 1896).
elem(8, 26721).
elem(9, 71383).
elem(10, 95135).
elem(11, 4200).
elem(12, 665).
elem(13, 88935).
elem(14, 1363).
elem(15, 9702).
elem(16, 61809).
elem(17, 34678).
elem(18, 3513).
elem(19, 96804).
elem(20, 3172).
elem(21, 24).
elem(22, 4702).
elem(23, 40444).
elem(24, 54854).
elem(25, 40688).
elem(26, 50356).
elem(27, 8956).
elem(28, 23871).
elem(29, 48060).
elem(30, 28069).
elem(31, 67918).
elem(32, 24651).
elem(33, 7431).
elem(34, 85883).
elem(35, 5986).
elem(36, 8131).
