elem(1, 47204).
elem(2, 342).
elem(3, 52454).
elem(4, 3384).
elem(5, 78017).
elem(6, 18599).
elem(7, 66321).
elem(8, 13096).
elem(9, 20583).
elem(10, 84889).
elem(11, 13743).
elem(12, 1368).
elem(13, 74411).
elem(14, 10739).
elem(15, 14850).
elem(16, 26766).
elem(17, 12738).
elem(18, 60496).
elem(19, 34969).
elem(20, 26193).
elem(21, 38838).
elem(22, 51585).
elem(23, 36121).
elem(24, 12294).
elem(25, 45134).
elem(26, 8208).
elem(27, 46658).
elem(28, 56788).
elem(29, 4232).
elem(30, 38980).
elem(31, 80173).
elem(32, 13836).
elem(33, 5991).
elem(34, 19247).
elem(35, 73869).
elem(36, 6884).
elem(37, 23591).
elem(38, 44716).
elem(39, 31693).
elem(40, 34677).
elem(41, 56346).
elem(42, 8977).
elem(43, 72876).
elem(44, 4377).
elem(45, 22747).
elem(46, 36316).
elem(47, 23009).
elem(48, 40675).
elem(49, 80261).
elem(50, 10716).
elem(51, 9023).
