elem(1, 84035).
elem(2, 13619).
elem(3, 2346).
elem(4, 36345).
elem(5, 60775).
elem(6, 2880).
elem(7, 62445).
elem(8, 19345).
elem(9, 18210).
elem(10, 96002).
elem(11, 1151).
elem(12, 2847).
elem(13, 1798).
elem(14, 55895).
elem(15, 42307).
elem(16, 50685).
elem(17, 33720).
elem(18, 15595).
elem(19, 32445).
elem(20, 14354).
elem(21, 53201).
elem(22, 88865).
elem(23, 2893).
elem(24, 8242).
elem(25, 70230).
elem(26, 20083).
elem(27, 9687).
elem(28, 10268).
elem(29, 11638).
elem(30, 78094).
elem(31, 16377).
elem(32, 83145).
elem(33, 478).
elem(34, 79608).
elem(35, 5519).
elem(36, 14873).
elem(37, 14369).
elem(38, 75845).
elem(39, 9786).
elem(40, 33397).
elem(41, 20120).
elem(42, 46483).
elem(43, 68479).
elem(44, 21909).
elem(45, 9612).
