elem(1, 38989).
elem(2, 50225).
elem(3, 10786).
elem(4, 55941).
elem(5, 34067).
elem(6, 9992).
elem(7, 85680).
elem(8, 5536).
elem(9, 8784).
elem(10, 2249).
elem(11, 23005).
elem(12, 74746).
elem(13, 35793).
elem(14, 47302).
elem(15, 16905).
elem(16, 35357).
elem(17, 50687).
elem(18, 13956).
elem(19, 3511).
elem(20, 49124).
elem(21, 47365).
elem(22, 14349).
elem(23, 66488).
elem(24, 19163).
elem(25, 73873).
elem(26, 20645).
elem(27, 5482).
elem(28, 22644).
elem(29, 19777).
elem(30, 57579).
elem(31, 17259).
elem(32, 59989).
elem(33, 22752).
elem(34, 17481).
elem(35, 48435).
elem(36, 34084).
elem(37, 5751).
elem(38, 19729).
elem(39, 74520).
elem(40, 783).
elem(41, 15465).
elem(42, 83752).
elem(43, 14542).
elem(44, 54431).
elem(45, 31027).
elem(46, 28851).
elem(47, 56579).
elem(48, 14570).
elem(49, 51554).
elem(50, 4062).
elem(51, 44384).
