elem(1, 61420).
elem(2, 15096).
elem(3, 23484).
elem(4, 69900).
elem(5, 15586).
elem(6, 14514).
elem(7, 9522).
elem(8, 30148).
elem(9, 60330).
elem(10, 53).
elem(11, 62503).
elem(12, 37444).
elem(13, 70706).
elem(14, 1368).
elem(15, 27926).
elem(16, 23291).
elem(17, 71892).
elem(18, 4817).
elem(19, 31744).
elem(20, 39625).
elem(21, 28631).
elem(22, 78529).
elem(23, 2392).
elem(24, 19079).
elem(25, 6862).
elem(26, 27001).
elem(27, 66137).
elem(28, 20976).
elem(29, 74923).
elem(30, 4101).
elem(31, 50649).
elem(32, 40751).
elem(33, 8600).
elem(34, 31890).
elem(35, 63919).
elem(36, 4191).
elem(37, 75242).
elem(38, 19927).
elem(39, 4831).
