elem(1, 88295).
elem(2, 3452).
elem(3, 8253).
elem(4, 18107).
elem(5, 58620).
elem(6, 23273).
elem(7, 91794).
elem(8, 5749).
elem(9, 2457).
elem(10, 60243).
elem(11, 18296).
elem(12, 21461).
elem(13, 21286).
elem(14, 69505).
elem(15, 9209).
elem(16, 95292).
elem(17, 936).
elem(18, 3772).
elem(19, 14016).
elem(20, 57381).
elem(21, 28603).
elem(22, 20472).
elem(23, 10765).
elem(24, 68763).
elem(25, 79395).
elem(26, 12655).
elem(27, 7950).
elem(28, 13015).
elem(29, 27461).
elem(30, 59524).
elem(31, 43897).
elem(32, 10079).
elem(33, 46024).
elem(34, 95122).
elem(35, 2991).
elem(36, 1887).
elem(37, 30941).
elem(38, 3990).
elem(39, 65069).
elem(40, 85683).
elem(41, 13060).
elem(42, 1257).
