elem(1, 37670).
elem(2, 36494).
elem(3, 25836).
elem(4, 54350).
elem(5, 22109).
elem(6, 23541).
elem(7, 8288).
elem(8, 13058).
elem(9, 78654).
elem(10, 7205).
elem(11, 28174).
elem(12, 64621).
elem(13, 1803).
elem(14, 962).
elem(15, 97235).
elem(16, 63970).
elem(17, 16313).
elem(18, 19717).
elem(19, 46428).
elem(20, 37079).
elem(21, 16493).
elem(22, 99676).
elem(23, 239).
elem(24, 85).
elem(25, 8700).
elem(26, 54905).
elem(27, 36395).
elem(28, 34114).
elem(29, 42631).
elem(30, 23255).
elem(31, 82770).
elem(32, 4544).
elem(33, 12686).
elem(34, 16975).
elem(35, 69280).
elem(36, 13745).
elem(37, 39914).
elem(38, 12809).
elem(39, 47277).
elem(40, 59090).
elem(41, 17176).
elem(42, 23734).
elem(43, 41919).
elem(44, 11720).
elem(45, 46361).
elem(46, 25447).
elem(47, 60061).
elem(48, 14492).
elem(49, 37210).
elem(50, 33507).
elem(51, 29283).
elem(52, 66290).
elem(53, 11097).
elem(54, 22613).
elem(55, 30166).
elem(56, 46631).
elem(57, 23203).
