elem(1, 33212).
elem(2, 26137).
elem(3, 40651).
elem(4, 44921).
elem(5, 39861).
elem(6, 15218).
elem(7, 64199).
elem(8, 4377).
elem(9, 31424).
elem(10, 22341).
elem(11, 16120).
elem(12, 61539).
elem(13, 92745).
elem(14, 5173).
elem(15, 2082).
elem(16, 84963).
elem(17, 10255).
elem(18, 4782).
elem(19, 79878).
elem(20, 6117).
elem(21, 14005).
elem(22, 38712).
elem(23, 18718).
elem(24, 42570).
elem(25, 42600).
elem(26, 35761).
elem(27, 21639).
elem(28, 72744).
elem(29, 1986).
elem(30, 25270).
elem(31, 64038).
elem(32, 13166).
elem(33, 22796).
elem(34, 71312).
elem(35, 12966).
elem(36, 15722).
elem(37, 21232).
elem(38, 13490).
elem(39, 65278).
elem(40, 86053).
elem(41, 2292).
elem(42, 11655).
elem(43, 74535).
elem(44, 5377).
elem(45, 20088).
elem(46, 37031).
elem(47, 54812).
elem(48, 8157).
elem(49, 81806).
elem(50, 9036).
elem(51, 9158).
elem(52, 51864).
elem(53, 6906).
elem(54, 41230).
