elem(1, 62865).
elem(2, 29839).
elem(3, 7296).
elem(4, 53477).
elem(5, 46026).
elem(6, 497).
elem(7, 31668).
elem(8, 59259).
elem(9, 9073).
elem(10, 41517).
elem(11, 51006).
elem(12, 7477).
elem(13, 25168).
elem(14, 63945).
elem(15, 10887).
elem(16, 70746).
elem(17, 7663).
elem(18, 21591).
elem(19, 9960).
elem(20, 58175).
elem(21, 31865).
elem(22, 18078).
elem(23, 35608).
elem(24, 46314).
elem(25, 5791).
elem(26, 76186).
elem(27, 18023).
elem(28, 11091).
elem(29, 45172).
elem(30, 43737).
elem(31, 17621).
elem(32, 80234).
elem(33, 2145).
elem(34, 36207).
elem(35, 22769).
elem(36, 41024).
elem(37, 74212).
elem(38, 3849).
elem(39, 21939).
elem(40, 79770).
elem(41, 15803).
elem(42, 4427).
elem(43, 1142).
elem(44, 92167).
elem(45, 6691).
elem(46, 60981).
elem(47, 37891).
elem(48, 1128).
elem(49, 62935).
elem(50, 32110).
elem(51, 4955).
