elem(1, 19248).
elem(2, 24687).
elem(3, 56065).
elem(4, 73159).
elem(5, 2261).
elem(6, 24580).
elem(7, 93116).
elem(8, 3358).
elem(9, 3526).
elem(10, 1874).
elem(11, 19426).
elem(12, 78700).
elem(13, 96360).
elem(14, 2340).
elem(15, 1300).
elem(16, 58491).
elem(17, 23937).
elem(18, 17572).
elem(19, 40575).
elem(20, 16491).
elem(21, 42934).
elem(22, 93189).
elem(23, 4763).
elem(24, 2048).
elem(25, 83216).
elem(26, 468).
elem(27, 16316).
elem(28, 20274).
elem(29, 41636).
elem(30, 38090).
elem(31, 6453).
elem(32, 3551).
elem(33, 89996).
elem(34, 1445).
elem(35, 24131).
elem(36, 74424).
elem(37, 17503).
elem(38, 21495).
elem(39, 61002).
elem(40, 87847).
elem(41, 9131).
elem(42, 3022).
elem(43, 29197).
elem(44, 16464).
elem(45, 54339).
elem(46, 15482).
elem(47, 39329).
elem(48, 45189).
