elem(1, 23211).
elem(2, 63087).
elem(3, 13702).
elem(4, 35710).
elem(5, 20175).
elem(6, 44115).
elem(7, 350).
elem(8, 85473).
elem(9, 14177).
elem(10, 16490).
elem(11, 64266).
elem(12, 19244).
elem(13, 80226).
elem(14, 6657).
elem(15, 13117).
elem(16, 53643).
elem(17, 28458).
elem(18, 17899).
elem(19, 33084).
elem(20, 10186).
elem(21, 56730).
elem(22, 5444).
elem(23, 20675).
elem(24, 73881).
elem(25, 98538).
elem(26, 271).
elem(27, 1191).
elem(28, 91747).
elem(29, 7666).
elem(30, 587).
elem(31, 11445).
elem(32, 50956).
elem(33, 37599).
elem(34, 25398).
elem(35, 5128).
elem(36, 69474).
elem(37, 79696).
elem(38, 11086).
elem(39, 9218).
elem(40, 47919).
elem(41, 34139).
elem(42, 17942).
elem(43, 81027).
elem(44, 848).
elem(45, 18125).
elem(46, 9368).
elem(47, 80766).
elem(48, 9866).
