elem(1, 76741).
elem(2, 11516).
elem(3, 11743).
elem(4, 66141).
elem(5, 6856).
elem(6, 27003).
elem(7, 56967).
elem(8, 18708).
elem(9, 24325).
elem(10, 6204).
elem(11, 64064).
elem(12, 29732).
elem(13, 20229).
elem(14, 53125).
elem(15, 26646).
elem(16, 77865).
elem(17, 8246).
elem(18, 13889).
elem(19, 23414).
elem(20, 18492).
elem(21, 58094).
elem(22, 55265).
elem(23, 19613).
elem(24, 25122).
elem(25, 45109).
elem(26, 32644).
elem(27, 22247).
elem(28, 121).
elem(29, 67989).
elem(30, 31890).
elem(31, 42558).
elem(32, 56861).
elem(33, 581).
elem(34, 42071).
elem(35, 36090).
elem(36, 21839).
