elem(1, 93460).
elem(2, 3157).
elem(3, 3383).
elem(4, 56755).
elem(5, 7435).
elem(6, 35810).
elem(7, 65477).
elem(8, 28754).
elem(9, 5769).
elem(10, 70263).
elem(11, 22024).
elem(12, 7713).
elem(13, 94696).
elem(14, 2526).
elem(15, 2778).
elem(16, 68500).
elem(17, 12241).
elem(18, 19259).
elem(19, 46447).
elem(20, 32821).
elem(21, 20732).
elem(22, 79073).
elem(23, 13476).
elem(24, 7451).
elem(25, 83674).
elem(26, 313).
elem(27, 16013).
elem(28, 23691).
elem(29, 30060).
elem(30, 46249).
elem(31, 81660).
elem(32, 13700).
elem(33, 4640).
elem(34, 21219).
elem(35, 68020).
elem(36, 10761).
elem(37, 33628).
elem(38, 9464).
elem(39, 56908).
elem(40, 90745).
elem(41, 8218).
elem(42, 1037).
elem(43, 95919).
elem(44, 1360).
elem(45, 2721).
elem(46, 35412).
elem(47, 24892).
elem(48, 39696).
elem(49, 90627).
elem(50, 931).
elem(51, 8442).
elem(52, 29569).
elem(53, 11930).
elem(54, 58501).
elem(55, 91720).
elem(56, 6567).
elem(57, 1713).
