elem(1, 14464).
elem(2, 20804).
elem(3, 64732).
elem(4, 66701).
elem(5, 9622).
elem(6, 23677).
elem(7, 59231).
elem(8, 21795).
elem(9, 18974).
elem(10, 150).
elem(11, 47967).
elem(12, 51883).
elem(13, 10505).
elem(14, 31481).
elem(15, 58014).
elem(16, 41834).
elem(17, 48185).
elem(18, 9981).
elem(19, 60205).
elem(20, 32918).
elem(21, 6877).
elem(22, 70340).
elem(23, 7064).
elem(24, 22596).
elem(25, 45010).
elem(26, 20767).
elem(27, 34223).
elem(28, 83849).
elem(29, 13208).
elem(30, 2943).
elem(31, 60837).
elem(32, 30526).
elem(33, 8637).
elem(34, 83117).
elem(35, 10940).
elem(36, 5943).
elem(37, 12970).
elem(38, 27884).
elem(39, 59146).
elem(40, 53552).
elem(41, 5301).
elem(42, 41147).
