elem(1, 16379).
elem(2, 70198).
elem(3, 13423).
elem(4, 85160).
elem(5, 1161).
elem(6, 13679).
elem(7, 11208).
elem(8, 42131).
elem(9, 46661).
elem(10, 9253).
elem(11, 2641).
elem(12, 88106).
elem(13, 37292).
elem(14, 42018).
elem(15, 20690).
elem(16, 58307).
elem(17, 21998).
elem(18, 19695).
elem(19, 21462).
elem(20, 9896).
elem(21, 68642).
elem(22, 73297).
elem(23, 3629).
elem(24, 23074).
elem(25, 22532).
elem(26, 16758).
elem(27, 60710).
elem(28, 97627).
elem(29, 1161).
elem(30, 1212).
elem(31, 2844).
elem(32, 39853).
elem(33, 57303).
elem(34, 18986).
elem(35, 60849).
elem(36, 20165).
elem(37, 1618).
elem(38, 19476).
elem(39, 78906).
elem(40, 97635).
elem(41, 2255).
elem(42, 110).
elem(43, 74169).
elem(44, 1824).
elem(45, 24007).
