elem(1, 26056).
elem(2, 26414).
elem(3, 47530).
elem(4, 2733).
elem(5, 82572).
elem(6, 14695).
elem(7, 476).
elem(8, 64769).
elem(9, 34755).
elem(10, 21026).
elem(11, 41330).
elem(12, 37644).
elem(13, 87016).
elem(14, 9292).
elem(15, 3692).
elem(16, 29145).
elem(17, 45326).
elem(18, 25529).
elem(19, 46626).
elem(20, 2733).
elem(21, 50641).
elem(22, 7598).
elem(23, 88431).
elem(24, 3971).
elem(25, 29631).
elem(26, 27180).
elem(27, 43189).
elem(28, 75940).
elem(29, 18099).
elem(30, 5961).
elem(31, 5421).
elem(32, 10703).
elem(33, 83876).
elem(34, 70448).
elem(35, 18401).
elem(36, 11151).
elem(37, 54069).
elem(38, 30886).
elem(39, 15045).
elem(40, 46287).
elem(41, 43262).
elem(42, 10451).
elem(43, 74249).
elem(44, 19488).
elem(45, 6263).
elem(46, 25015).
elem(47, 69695).
elem(48, 5290).
