elem(1, 77719).
elem(2, 21375).
elem(3, 906).
elem(4, 76388).
elem(5, 7389).
elem(6, 16223).
elem(7, 89553).
elem(8, 2141).
elem(9, 8306).
elem(10, 70685).
elem(11, 4304).
elem(12, 25011).
elem(13, 3663).
elem(14, 66743).
elem(15, 29594).
elem(16, 60392).
elem(17, 8679).
elem(18, 30929).
elem(19, 68793).
elem(20, 13390).
elem(21, 17817).
elem(22, 92455).
elem(23, 5397).
elem(24, 2148).
elem(25, 31929).
elem(26, 831).
elem(27, 67240).
elem(28, 85053).
elem(29, 14942).
elem(30, 5).
elem(31, 4774).
elem(32, 701).
elem(33, 94525).
elem(34, 95486).
elem(35, 104).
elem(36, 4410).
elem(37, 14296).
elem(38, 37976).
elem(39, 47728).
elem(40, 77668).
elem(41, 4642).
elem(42, 17690).
elem(43, 18360).
elem(44, 19870).
elem(45, 61770).
elem(46, 70219).
elem(47, 14682).
elem(48, 15099).
elem(49, 33375).
elem(50, 30525).
elem(51, 36100).
