elem(1, 50545).
elem(2, 20846).
elem(3, 28609).
elem(4, 72137).
elem(5, 9441).
elem(6, 18422).
elem(7, 26663).
elem(8, 7446).
elem(9, 65891).
elem(10, 65664).
elem(11, 30244).
elem(12, 4092).
elem(13, 40223).
elem(14, 19900).
elem(15, 39877).
elem(16, 87265).
elem(17, 12141).
elem(18, 594).
elem(19, 65103).
elem(20, 23610).
elem(21, 11287).
elem(22, 42004).
elem(23, 44480).
elem(24, 13516).
elem(25, 73170).
elem(26, 5705).
elem(27, 21125).
elem(28, 28485).
elem(29, 55332).
elem(30, 16183).
elem(31, 19588).
elem(32, 36043).
elem(33, 44369).
elem(34, 3685).
elem(35, 8090).
elem(36, 88225).
elem(37, 13787).
elem(38, 15287).
elem(39, 70926).
elem(40, 86198).
elem(41, 5647).
elem(42, 8155).
elem(43, 10731).
elem(44, 17260).
elem(45, 72009).
elem(46, 53021).
elem(47, 20883).
elem(48, 26096).
