elem(1, 51015).
elem(2, 29746).
elem(3, 19239).
elem(4, 24647).
elem(5, 73722).
elem(6, 1631).
elem(7, 81150).
elem(8, 6281).
elem(9, 12569).
elem(10, 66640).
elem(11, 28363).
elem(12, 4997).
elem(13, 43296).
elem(14, 43160).
elem(15, 13544).
elem(16, 72404).
elem(17, 10136).
elem(18, 17460).
elem(19, 31782).
elem(20, 2820).
elem(21, 65398).
elem(22, 49504).
elem(23, 19183).
elem(24, 31313).
elem(25, 80987).
elem(26, 18912).
elem(27, 101).
elem(28, 59219).
elem(29, 15258).
elem(30, 25523).
elem(31, 98038).
elem(32, 707).
elem(33, 1255).
