elem(1, 36082).
elem(2, 14425).
elem(3, 49493).
elem(4, 98574).
elem(5, 1109).
elem(6, 317).
elem(7, 75961).
elem(8, 17653).
elem(9, 6386).
elem(10, 90686).
elem(11, 6675).
elem(12, 2639).
elem(13, 54661).
elem(14, 35890).
elem(15, 9449).
elem(16, 19817).
elem(17, 77632).
elem(18, 2551).
elem(19, 15560).
elem(20, 33034).
elem(21, 51406).
elem(22, 34480).
elem(23, 60185).
elem(24, 5335).
elem(25, 45020).
elem(26, 45449).
elem(27, 9531).
elem(28, 21151).
elem(29, 3232).
elem(30, 75617).
elem(31, 91193).
elem(32, 2364).
elem(33, 6443).
elem(34, 59175).
elem(35, 30282).
elem(36, 10543).
elem(37, 8712).
elem(38, 70411).
elem(39, 20877).
elem(40, 19339).
elem(41, 42677).
elem(42, 37984).
elem(43, 68848).
elem(44, 12698).
elem(45, 18454).
elem(46, 25577).
elem(47, 4357).
elem(48, 70066).
