elem(1, 72771).
elem(2, 15427).
elem(3, 11802).
elem(4, 97046).
elem(5, 2369).
elem(6, 585).
elem(7, 51186).
elem(8, 30223).
elem(9, 18591).
elem(10, 28023).
elem(11, 60136).
elem(12, 11841).
elem(13, 6392).
elem(14, 54484).
elem(15, 39124).
elem(16, 46997).
elem(17, 9113).
elem(18, 43890).
elem(19, 21770).
elem(20, 35044).
elem(21, 43186).
elem(22, 7430).
elem(23, 56588).
elem(24, 35982).
elem(25, 59863).
elem(26, 4768).
elem(27, 35369).
elem(28, 82360).
elem(29, 17449).
elem(30, 191).
elem(31, 72063).
elem(32, 13124).
elem(33, 14813).
