elem(1, 55385).
elem(2, 33181).
elem(3, 11434).
elem(4, 91120).
elem(5, 4388).
elem(6, 4492).
elem(7, 30290).
elem(8, 40122).
elem(9, 29588).
elem(10, 37383).
elem(11, 11201).
elem(12, 51416).
elem(13, 32783).
elem(14, 36241).
elem(15, 30976).
elem(16, 77876).
elem(17, 16512).
elem(18, 5612).
elem(19, 36075).
elem(20, 33698).
elem(21, 30227).
elem(22, 207).
elem(23, 19144).
elem(24, 80649).
elem(25, 80072).
elem(26, 15694).
elem(27, 4234).
elem(28, 17200).
elem(29, 12725).
elem(30, 70075).
elem(31, 93462).
elem(32, 3487).
elem(33, 3051).
elem(34, 88580).
elem(35, 2687).
elem(36, 8733).
