elem(1, 99764).
elem(2, 66).
elem(3, 170).
elem(4, 56498).
elem(5, 40714).
elem(6, 2788).
elem(7, 56537).
elem(8, 11747).
elem(9, 31716).
elem(10, 36633).
elem(11, 62500).
elem(12, 867).
elem(13, 13122).
elem(14, 68635).
elem(15, 18243).
elem(16, 36561).
elem(17, 4505).
elem(18, 58934).
elem(19, 34940).
elem(20, 47705).
elem(21, 17355).
elem(22, 94396).
elem(23, 4348).
elem(24, 1256).
elem(25, 61678).
elem(26, 11041).
elem(27, 27281).
elem(28, 12479).
elem(29, 33460).
elem(30, 54061).
elem(31, 50672).
elem(32, 27360).
elem(33, 21968).
