elem(1, 18499).
elem(2, 46438).
elem(3, 35063).
elem(4, 10412).
elem(5, 13822).
elem(6, 75766).
elem(7, 57616).
elem(8, 16011).
elem(9, 26373).
elem(10, 7146).
elem(11, 38460).
elem(12, 54394).
elem(13, 655).
elem(14, 9506).
elem(15, 89839).
elem(16, 32198).
elem(17, 28689).
elem(18, 39113).
elem(19, 57528).
elem(20, 41595).
elem(21, 877).
elem(22, 1928).
elem(23, 35564).
elem(24, 62508).
elem(25, 72356).
elem(26, 10501).
elem(27, 17143).
elem(28, 87632).
elem(29, 12049).
elem(30, 319).
elem(31, 79584).
elem(32, 111).
elem(33, 20305).
elem(34, 18209).
elem(35, 62008).
elem(36, 19783).
