elem(1, 5797).
elem(2, 88905).
elem(3, 5298).
elem(4, 16461).
elem(5, 36062).
elem(6, 47477).
elem(7, 16042).
elem(8, 44202).
elem(9, 39756).
elem(10, 40301).
elem(11, 28519).
elem(12, 31180).
elem(13, 62908).
elem(14, 32552).
elem(15, 4540).
elem(16, 78762).
elem(17, 1544).
elem(18, 19694).
elem(19, 78550).
elem(20, 17587).
elem(21, 3863).
elem(22, 97176).
elem(23, 1693).
elem(24, 1131).
elem(25, 87113).
elem(26, 5867).
elem(27, 7020).
elem(28, 3928).
elem(29, 43224).
elem(30, 52848).
elem(31, 7606).
elem(32, 19524).
elem(33, 72870).
elem(34, 92919).
elem(35, 6741).
elem(36, 340).
