elem(1, 83865).
elem(2, 9788).
elem(3, 6347).
elem(4, 72417).
elem(5, 4827).
elem(6, 22756).
elem(7, 59659).
elem(8, 34852).
elem(9, 5489).
elem(10, 4301).
elem(11, 57524).
elem(12, 38175).
elem(13, 4472).
elem(14, 26988).
elem(15, 68540).
elem(16, 35737).
elem(17, 64072).
elem(18, 191).
elem(19, 98843).
elem(20, 381).
elem(21, 776).
elem(22, 89998).
elem(23, 3165).
elem(24, 6837).
elem(25, 37872).
elem(26, 2648).
elem(27, 59480).
elem(28, 10444).
elem(29, 73110).
elem(30, 16446).
elem(31, 93014).
elem(32, 6249).
elem(33, 737).
elem(34, 86330).
elem(35, 8355).
elem(36, 5315).
elem(37, 245).
elem(38, 46188).
elem(39, 53567).
elem(40, 88562).
elem(41, 6794).
elem(42, 4644).
elem(43, 58706).
elem(44, 32441).
elem(45, 8853).
elem(46, 33942).
elem(47, 58963).
elem(48, 7095).
