elem(1, 54718).
elem(2, 43943).
elem(3, 1339).
elem(4, 39992).
elem(5, 39016).
elem(6, 20992).
elem(7, 32530).
elem(8, 22961).
elem(9, 44509).
elem(10, 40900).
elem(11, 35668).
elem(12, 23432).
elem(13, 25881).
elem(14, 58925).
elem(15, 15194).
elem(16, 23566).
elem(17, 52677).
elem(18, 23757).
elem(19, 69665).
elem(20, 23859).
elem(21, 6476).
elem(22, 8615).
elem(23, 69787).
elem(24, 21598).
elem(25, 54006).
elem(26, 24599).
elem(27, 21395).
elem(28, 3629).
elem(29, 56850).
elem(30, 39521).
elem(31, 31232).
elem(32, 5637).
elem(33, 63131).
