elem(1, 84252).
elem(2, 2790).
elem(3, 12958).
elem(4, 48499).
elem(5, 43992).
elem(6, 7509).
elem(7, 8221).
elem(8, 43736).
elem(9, 48043).
elem(10, 10148).
elem(11, 29858).
elem(12, 59994).
elem(13, 96273).
elem(14, 433).
elem(15, 3294).
elem(16, 78346).
elem(17, 16244).
elem(18, 5410).
elem(19, 16121).
elem(20, 66901).
elem(21, 16978).
elem(22, 35628).
elem(23, 56990).
elem(24, 7382).
elem(25, 16316).
elem(26, 1881).
elem(27, 81803).
elem(28, 16188).
elem(29, 57200).
elem(30, 26612).
elem(31, 93379).
elem(32, 6459).
elem(33, 162).
elem(34, 19546).
elem(35, 26481).
elem(36, 53973).
