elem(1, 50948).
elem(2, 18076).
elem(3, 30976).
elem(4, 7879).
elem(5, 36384).
elem(6, 55737).
elem(7, 92594).
elem(8, 1013).
elem(9, 6393).
elem(10, 68267).
elem(11, 15740).
elem(12, 15993).
elem(13, 93549).
elem(14, 4546).
elem(15, 1905).
elem(16, 67038).
elem(17, 11039).
elem(18, 21923).
elem(19, 79485).
elem(20, 18082).
elem(21, 2433).
elem(22, 81452).
elem(23, 5691).
elem(24, 12857).
elem(25, 41851).
elem(26, 42171).
elem(27, 15978).
elem(28, 16374).
elem(29, 30812).
elem(30, 52814).
elem(31, 93363).
elem(32, 129).
elem(33, 6508).
elem(34, 28305).
elem(35, 18605).
elem(36, 53090).
elem(37, 79072).
elem(38, 19584).
elem(39, 1344).
elem(40, 38028).
elem(41, 14167).
elem(42, 47805).
elem(43, 84614).
elem(44, 14076).
elem(45, 1310).
elem(46, 24325).
elem(47, 69883).
elem(48, 5792).
elem(49, 34326).
elem(50, 57390).
elem(51, 8284).
