elem(1, 7014).
elem(2, 33357).
elem(3, 59629).
elem(4, 83016).
elem(5, 12718).
elem(6, 4266).
elem(7, 72910).
elem(8, 8233).
elem(9, 18857).
elem(10, 52426).
elem(11, 38030).
elem(12, 9544).
elem(13, 7993).
elem(14, 91665).
elem(15, 342).
elem(16, 81294).
elem(17, 3139).
elem(18, 15567).
elem(19, 88390).
elem(20, 4402).
elem(21, 7208).
elem(22, 94752).
elem(23, 51).
elem(24, 5197).
elem(25, 46537).
elem(26, 44356).
elem(27, 9107).
elem(28, 82223).
elem(29, 10291).
elem(30, 7486).
elem(31, 75695).
elem(32, 9393).
elem(33, 14912).
elem(34, 60192).
elem(35, 16354).
elem(36, 23454).
elem(37, 90955).
elem(38, 2439).
elem(39, 6606).
elem(40, 70817).
elem(41, 14901).
elem(42, 14282).
elem(43, 15836).
elem(44, 19173).
elem(45, 64991).
elem(46, 76680).
elem(47, 3228).
elem(48, 20092).
elem(49, 55495).
elem(50, 20873).
elem(51, 23632).
elem(52, 92153).
elem(53, 3668).
elem(54, 4179).
elem(55, 43590).
elem(56, 49617).
elem(57, 6793).
