elem(1, 95869).
elem(2, 3754).
elem(3, 377).
elem(4, 19359).
elem(5, 46072).
elem(6, 34569).
elem(7, 82445).
elem(8, 227).
elem(9, 17328).
elem(10, 11751).
elem(11, 87581).
elem(12, 668).
elem(13, 20473).
elem(14, 72513).
elem(15, 7014).
elem(16, 67593).
elem(17, 18313).
elem(18, 14094).
elem(19, 64145).
elem(20, 20645).
elem(21, 15210).
elem(22, 63531).
elem(23, 12258).
elem(24, 24211).
elem(25, 757).
elem(26, 99085).
elem(27, 158).
elem(28, 97219).
elem(29, 1752).
elem(30, 1029).
elem(31, 37292).
elem(32, 35979).
elem(33, 26729).
elem(34, 31030).
elem(35, 61426).
elem(36, 7544).
elem(37, 24982).
elem(38, 52173).
elem(39, 22845).
elem(40, 24553).
elem(41, 2820).
elem(42, 72627).
elem(43, 12691).
elem(44, 27418).
elem(45, 59891).
elem(46, 65811).
elem(47, 13779).
elem(48, 20410).
