elem(1, 47409).
elem(2, 42023).
elem(3, 10568).
elem(4, 19430).
elem(5, 50678).
elem(6, 29892).
elem(7, 45460).
elem(8, 33965).
elem(9, 20575).
elem(10, 93229).
elem(11, 5554).
elem(12, 1217).
elem(13, 6080).
elem(14, 3617).
elem(15, 90303).
elem(16, 44761).
elem(17, 30810).
elem(18, 24429).
elem(19, 61028).
elem(20, 7432).
elem(21, 31540).
elem(22, 77483).
elem(23, 14983).
elem(24, 7534).
elem(25, 20062).
elem(26, 71365).
elem(27, 8573).
elem(28, 95566).
elem(29, 4279).
elem(30, 155).
elem(31, 84628).
elem(32, 14866).
elem(33, 506).
elem(34, 52520).
elem(35, 43358).
elem(36, 4122).
