elem(1, 23132).
elem(2, 4945).
elem(3, 71923).
elem(4, 21993).
elem(5, 68184).
elem(6, 9823).
elem(7, 99223).
elem(8, 286).
elem(9, 491).
elem(10, 47274).
elem(11, 4000).
elem(12, 48726).
elem(13, 90473).
elem(14, 2660).
elem(15, 6867).
elem(16, 75419).
elem(17, 8248).
elem(18, 16333).
elem(19, 88296).
elem(20, 2571).
elem(21, 9133).
elem(22, 19556).
elem(23, 41399).
elem(24, 39045).
elem(25, 56248).
elem(26, 2673).
elem(27, 41079).
elem(28, 64256).
elem(29, 6519).
elem(30, 29225).
elem(31, 72788).
elem(32, 24950).
elem(33, 2262).
elem(34, 1316).
elem(35, 21426).
elem(36, 77258).
elem(37, 59302).
elem(38, 23086).
elem(39, 17612).
elem(40, 35403).
elem(41, 46269).
elem(42, 18328).
elem(43, 58971).
elem(44, 28142).
elem(45, 12887).
elem(46, 39733).
elem(47, 57451).
elem(48, 2816).
elem(49, 96861).
elem(50, 2403).
elem(51, 736).
elem(52, 15677).
elem(53, 76935).
elem(54, 7388).
elem(55, 69137).
elem(56, 18934).
elem(57, 11929).
