elem(1, 90770).
elem(2, 8325).
elem(3, 905).
elem(4, 48755).
elem(5, 5026).
elem(6, 46219).
elem(7, 86097).
elem(8, 4069).
elem(9, 9834).
elem(10, 62815).
elem(11, 33271).
elem(12, 3914).
elem(13, 75085).
elem(14, 4634).
elem(15, 20281).
elem(16, 8004).
elem(17, 1129).
elem(18, 90867).
elem(19, 51336).
elem(20, 23003).
elem(21, 25661).
elem(22, 63083).
elem(23, 7408).
elem(24, 29509).
elem(25, 52668).
elem(26, 29979).
elem(27, 17353).
elem(28, 39921).
elem(29, 36844).
elem(30, 23235).
elem(31, 50801).
elem(32, 22862).
elem(33, 26337).
elem(34, 57601).
elem(35, 26410).
elem(36, 15989).
elem(37, 63740).
elem(38, 6001).
elem(39, 30259).
elem(40, 10770).
elem(41, 33395).
elem(42, 55835).
elem(43, 17969).
elem(44, 62614).
elem(45, 19417).
elem(46, 42381).
elem(47, 11479).
elem(48, 46140).
elem(49, 47226).
elem(50, 36007).
elem(51, 16767).
elem(52, 20188).
elem(53, 61101).
elem(54, 18711).
elem(55, 53241).
elem(56, 1616).
elem(57, 45143).
