elem(1, 41235).
elem(2, 57849).
elem(3, 916).
elem(4, 32958).
elem(5, 4655).
elem(6, 62387).
elem(7, 93819).
elem(8, 3329).
elem(9, 2852).
elem(10, 14393).
elem(11, 45268).
elem(12, 40339).
elem(13, 76834).
elem(14, 7213).
elem(15, 15953).
elem(16, 99791).
elem(17, 196).
elem(18, 13).
elem(19, 52446).
elem(20, 4010).
elem(21, 43544).
elem(22, 81764).
elem(23, 15192).
elem(24, 3044).
elem(25, 88326).
elem(26, 6194).
elem(27, 5480).
elem(28, 65157).
elem(29, 12821).
elem(30, 22022).
elem(31, 54400).
elem(32, 28687).
elem(33, 16913).
elem(34, 58762).
elem(35, 25402).
elem(36, 15836).
elem(37, 67677).
elem(38, 1631).
elem(39, 30692).
elem(40, 57701).
elem(41, 24228).
elem(42, 18071).
elem(43, 76367).
elem(44, 23083).
elem(45, 550).
