elem(1, 57009).
elem(2, 9031).
elem(3, 33960).
elem(4, 28682).
elem(5, 14047).
elem(6, 57271).
elem(7, 28893).
elem(8, 63638).
elem(9, 7469).
elem(10, 48662).
elem(11, 28535).
elem(12, 22803).
elem(13, 59700).
elem(14, 35901).
elem(15, 4399).
elem(16, 99431).
elem(17, 300).
elem(18, 269).
elem(19, 5856).
elem(20, 34923).
elem(21, 59221).
elem(22, 30907).
elem(23, 6629).
elem(24, 62464).
elem(25, 35789).
elem(26, 34039).
elem(27, 30172).
elem(28, 14944).
elem(29, 57703).
elem(30, 27353).
elem(31, 91193).
elem(32, 6570).
elem(33, 2237).
