elem(1, 99177).
elem(2, 540).
elem(3, 283).
elem(4, 73295).
elem(5, 21834).
elem(6, 4871).
elem(7, 43807).
elem(8, 36920).
elem(9, 19273).
elem(10, 93860).
elem(11, 761).
elem(12, 5379).
elem(13, 23316).
elem(14, 23896).
elem(15, 52788).
elem(16, 11274).
elem(17, 62910).
elem(18, 25816).
elem(19, 83062).
elem(20, 6044).
elem(21, 10894).
elem(22, 61466).
elem(23, 10388).
elem(24, 28146).
elem(25, 57059).
elem(26, 17887).
elem(27, 25054).
elem(28, 55354).
elem(29, 41444).
elem(30, 3202).
elem(31, 69937).
elem(32, 10522).
elem(33, 19541).
elem(34, 9631).
elem(35, 5956).
elem(36, 84413).
elem(37, 98619).
elem(38, 735).
elem(39, 646).
elem(40, 93412).
elem(41, 4458).
elem(42, 2130).
elem(43, 39130).
elem(44, 33327).
elem(45, 27543).
elem(46, 87444).
elem(47, 9804).
elem(48, 2752).
elem(49, 67069).
elem(50, 999).
elem(51, 31932).
elem(52, 36175).
elem(53, 40301).
elem(54, 23524).
elem(55, 78424).
elem(56, 7705).
elem(57, 13871).
